&control
    calculation = 'relax'
    prefix = 'graphene'
    pseudo_dir = '/home/st/h/hb153250/DFT/Graphene/pseudopotentials/'
    outdir = './'
    restart_mode = 'from_scratch'
    etot_conv_thr = 1.d-6
    forc_conv_thr = 1.d-5
/

&system
    ibrav = 0 
    nat = 61
    ntyp = 3
    ecutwfc = 80
    occupations = 'smearing'
    smearing = 'gaussian'
    degauss = 0.1
    tot_charge = 1
    
    vdw_corr='grimme-d2'
/

&electrons
    diagonalization = 'david'
    diago_thr_init = 1.d-4
    mixing_mode = 'plain'
    mixing_beta = 0.7
    conv_thr =  1.d-10
/	

&ions

/


ATOMIC_SPECIES
C_h 12.0107 C.star1s-pbe-mt_gipaw.UPF
C   12.0107 C.pbe-mt_gipaw.UPF
O   15.9994 O.pbe-van_gipaw.UPF


ATOMIC_POSITIONS crystal
        C        0.110801510   0.066278857   0.500000000
        C        0.055784097   0.133547842   0.500000000
        C        0.277872729   0.066794762   0.500000000
        C        0.222478142   0.133561819   0.500000000
        C        0.444345171   0.066674281   0.500000000
        C        0.389629074   0.134065165   0.500000000
        C        0.610844588   0.066657323   0.500000000
        C        0.555760595   0.134060380   0.500000000
        C        0.777391714   0.066279155   0.500000000
        C        0.722377994   0.133571902   0.500000000
        C        0.944155450   0.066305916   0.500000000
        C        0.889064000   0.133520103   0.500000000
        C        0.110891277   0.266442561   0.500000000
        C        0.055792342   0.333642061   0.500000000
        C        0.277585039   0.266421092   0.500000000
        C        0.222537481   0.333692376   0.500000000
        C        0.444720557   0.267296753   0.500000000
        C        0.389016732   0.333550119   0.500000000
        C        0.611063578   0.267315867   0.500000000
        C        0.555903772   0.334010427   0.500000000
        C        0.777437386   0.266422952   0.500000000
        C        0.722543623   0.333599035   0.500000000
        C        0.944165500   0.266421445   0.500000000
        C        0.889113590   0.333712965   0.500000000
        C        0.110885491   0.466474684   0.500000000
        C        0.055696019   0.533676832   0.500000000
        C        0.277846129   0.466469301   0.500000000
        C        0.222605089   0.533655251   0.500000000
        C        0.444701611   0.466159938   0.500000000
        C        0.389618610   0.533810245   0.500000000
        O        0.5002591275  0.499754718   0.650000000
        C        0.610754404   0.466273502   0.500000000
        C_h      0.555816644   0.533235934   0.500000000
        C        0.776854366   0.466259342   0.500000000
        C        0.722101951   0.533281023   0.500000000
        C        0.943966322   0.466504137   0.500000000
        C        0.888859427   0.533868192   0.500000000
        C        0.110886438   0.666493161   0.500000000
        C        0.055886505   0.733707944   0.500000000
        C        0.277647570   0.666479089   0.500000000
        C        0.222544471   0.733699129   0.500000000
        C        0.444285337   0.666317834   0.500000000
        C        0.389235121   0.733671983   0.500000000
        C        0.610938540   0.665627461   0.500000000
        C        0.555693277   0.733027942   0.500000000
        C        0.776792320   0.665579178   0.500000000
        C        0.722457886   0.733595754   0.500000000
        C        0.944114723   0.666344005   0.500000000
        C        0.888756410   0.732905522   0.500000000
        C        0.110961210   0.866491205   0.500000000
        C        0.055624186   0.933347453   0.500000000
        C        0.277669489   0.866571900   0.500000000
        C        0.222669266   0.933846597   0.500000000
        C        0.444266117   0.866460341   0.500000000
        C        0.389270667   0.933724886   0.500000000
        C        0.610808642   0.866105119   0.500000000
        C        0.555811558   0.933597785   0.500000000
        C        0.777373181   0.866146963   0.500000000
        C        0.722341018   0.933442934   0.500000000
        C        0.943910527   0.865933463   0.500000000
        C        0.889073537   0.933368810   0.500000000

K_POINTS automatic
1 1 1 0 0 0


CELL_PARAMETERS angstrom
14.59434678 0.000000000 0.0000000000
-6.319539258 10.9457631 0.0000000000
0.000000000 0.000000000 10.0000000000
