&control
    calculation = 'scf'
    prefix = 'graphene'
    pseudo_dir = '/home/549/hxw549/Short/pseudopotentials/'    
    outdir = './'
    restart_mode = 'from_scratch'
    etot_conv_thr = 1.d-6
    forc_conv_thr = 1.d-5
/
&system
    ibrav = 0 
    nat = 98
    ntyp = 2
    ecutwfc = 80
    occupations = 'smearing'
    smearing = 'gaussian'
    degauss = 0.1
    tot_charge=1
/
&electrons
    diagonalization = 'david'
    diago_thr_init = 1.d-4
    mixing_mode = 'plain'
    mixing_beta = 0.7
    conv_thr =  1.d-10
/	
&ions
/
ATOMIC_SPECIES
C   12.0107 C.pbe-mt_gipaw.UPF
C_h 12.0107 C.star1s-pbe-mt_gipaw.UPF
ATOMIC_POSITIONS crystal
C        0.095244476   0.047622238   0.500000000
C        0.047622238   0.095244476   0.500000000
C        0.238091007   0.047620185   0.500000000
C        0.190478138   0.095239074   0.500000000
C        0.380953561   0.047621218   0.500000000
C        0.333332248   0.095244386   0.500000000
C        0.523809421   0.047618851   0.500000000
C        0.476195767   0.095241301   0.500000000
C        0.666667657   0.047621218   0.500000000
C        0.619045534   0.095241301   0.500000000
C        0.809529178   0.047620185   0.500000000
C        0.761912128   0.095244386   0.500000000
C        0.952377762   0.047622238   0.500000000
C        0.904760926   0.095239074   0.500000000
C        0.095239074   0.190478138   0.500000000
C        0.047620185   0.238091007   0.500000000
C        0.238091007   0.190470822   0.500000000
C        0.190470822   0.238091007   0.500000000
C        0.380953780   0.190476890   0.500000000
C        0.333332248   0.238087872   0.500000000
C        0.523805842   0.190473374   0.500000000
C        0.476188704   0.238094352   0.500000000
C        0.666667532   0.190473374   0.500000000
C        0.619043630   0.238087259   0.500000000
C        0.809523110   0.190476890   0.500000000
C        0.761905648   0.238094352   0.500000000
C        0.952379815   0.190470822   0.500000000
C        0.904755614   0.238087872   0.500000000
C        0.095244386   0.333332248   0.500000000
C        0.047621218   0.380953561   0.500000000
C        0.238087872   0.333332248   0.500000000
C        0.190476890   0.380953780   0.500000000
C        0.380953561   0.333332343   0.500000000
C        0.333332343   0.380953561   0.500000000
C        0.523805842   0.333332468   0.500000000
C        0.476195767   0.380954466   0.500000000
C        0.666666670   0.333333330   0.500000000
C        0.619043630   0.380956370   0.500000000
C        0.809526626   0.333332468   0.500000000
C        0.761912741   0.380956370   0.500000000
C        0.952378782   0.333332343   0.500000000
C        0.904758699   0.380954466   0.500000000
C        0.095241301   0.476195767   0.500000000
C        0.047618851   0.523809421   0.500000000
C        0.238094352   0.476188704   0.500000000
C        0.190473374   0.523805842   0.500000000
C        0.380954466   0.476195767   0.500000000
C        0.333332468   0.523805842   0.500000000
C_h      0.523809421   0.476190579   0.500000000
C        0.476190579   0.523809421   0.500000000
C        0.666667532   0.476194158   0.500000000
C        0.619045534   0.523804233   0.500000000
C        0.809526626   0.476194158   0.500000000
C        0.761905648   0.523811296   0.500000000
C        0.952381149   0.476190579   0.500000000
C        0.904758699   0.523804233   0.500000000
C        0.095241301   0.619045534   0.500000000
C        0.047621218   0.666667657   0.500000000
C        0.238087259   0.619043630   0.500000000
C        0.190473374   0.666667532   0.500000000
C        0.380956370   0.619043630   0.500000000
C        0.333333330   0.666666670   0.500000000
C        0.523804233   0.619045534   0.500000000
C        0.476194158   0.666667532   0.500000000
C        0.666667657   0.619046439   0.500000000
C        0.619046439   0.666667657   0.500000000
C        0.809523110   0.619046220   0.500000000
C        0.761912128   0.666667752   0.500000000
C        0.952378782   0.619046439   0.500000000
C        0.904755614   0.666667752   0.500000000
C        0.095244386   0.761912128   0.500000000
C        0.047620185   0.809529178   0.500000000
C        0.238094352   0.761905648   0.500000000
C        0.190476890   0.809523110   0.500000000
C        0.380956370   0.761912741   0.500000000
C        0.333332468   0.809526626   0.500000000
C        0.523811296   0.761905648   0.500000000
C        0.476194158   0.809526626   0.500000000
C        0.666667752   0.761912128   0.500000000
C        0.619046220   0.809523110   0.500000000
C        0.809529178   0.761908993   0.500000000
C        0.761908993   0.809529178   0.500000000
C        0.952379815   0.761908993   0.500000000
C        0.904760926   0.809521862   0.500000000
C        0.095239074   0.904760926   0.500000000
C        0.047622238   0.952377762   0.500000000
C        0.238087872   0.904755614   0.500000000
C        0.190470822   0.952379815   0.500000000
C        0.380954466   0.904758699   0.500000000
C        0.333332343   0.952378782   0.500000000
C        0.523804233   0.904758699   0.500000000
C        0.476190579   0.952381149   0.500000000
C        0.666667752   0.904755614   0.500000000
C        0.619046439   0.952378782   0.500000000
C        0.809521862   0.904760926   0.500000000
C        0.761908993   0.952379815   0.500000000
C        0.952377762   0.904755524   0.500000000
C        0.904755524   0.952377762   0.500000000
K_POINTS automatic
1 1 1 0 0 0
CELL_PARAMETERS angstrom
17.297 0.000000000 0.0000000000
-8.6485 14.9796414 0.0000000000
0.000000000 0.000000000 10.0000000000
