&control
    calculation = 'relax'
    prefix = 'gc'
    pseudo_dir = '/home/549/hxw549/Short/pseudopotentials/'
    outdir = './'
    restart_mode = 'from_scratch'
    etot_conv_thr = 1.d-6
    forc_conv_thr = 1.d-5
/
&system
    ibrav = 0
    nat = 156
    ntyp = 2
    ecutwfc = 80
    occupations = 'smearing'
    smearing = 'gaussian'
    degauss = 0.1
    vdw_corr='grimme-d2'
/
&electrons
    diagonalization = 'david'
    diago_thr_init = 1.d-4
    mixing_mode = 'local-TF'
    mixing_beta = 0.7
    conv_thr =  1.d-8
/	
&ions
/
ATOMIC_SPECIES
Cu 63.546 Cu.pbe-n-van_ak.UPF
C   12.0107 C.pbe-mt_gipaw.UPF
ATOMIC_POSITIONS angstrom
Cu       0.000514352   0.024797763   6.606614211
Cu       1.844847012   1.739500206   6.597780232
Cu       3.687693082   0.024365783   6.613186868
Cu       5.532444279   1.737908166   6.599484850
Cu      -0.000820062   3.462631320   6.601285915
Cu       1.844543276   5.171105168   6.636943366
Cu       3.689211865   3.461300436   6.601886478
Cu       5.532998027   5.170194302   6.637481004
Cu      -0.001064520   6.852707805   6.684411077
Cu       1.844447992   8.522876490   6.680533598
Cu       3.689658653   6.854019611   6.687565057
Cu       5.533219127   8.524142143   6.682782339
Cu       0.000254335  10.202680052   6.627291016
Cu       1.844661189  11.908907158   6.595751067
Cu       3.688338098  10.202450408   6.630137771
Cu       5.532853790  11.909783804   6.598281661
Cu      -0.000448321  13.635617546   6.601339584
Cu       1.843105443  15.354896681   6.611663034
Cu       3.688807817  13.636194982   6.596133458
Cu       5.534178143  15.355099291   6.609901113
Cu      -0.001287155   1.728079926   8.414345066
Cu       1.844749665   0.024900216   8.422910983
Cu       3.689661453   1.731494890   8.419453848
Cu       5.532673477   0.022291249   8.422108135
Cu       0.000916877   5.130180379   8.482931830
Cu       1.842686129   3.432437935   8.433275942
Cu       3.687520847   5.128347303   8.480909404
Cu       5.534733630   3.433841348   8.433436446
Cu       0.001187128   8.546875658   8.519905120
Cu       1.843962674   6.834522834   8.521677558
Cu       3.687353264   8.547495938   8.523592461
Cu       5.533607836   6.833667659   8.520696844
Cu      -0.000282084  11.935566705   8.429351998
Cu       1.844369185  10.245739798   8.482348528
Cu       3.688866269  11.941052570   8.429259872
Cu       5.533222723  10.246078021   8.480241885
Cu       0.001150080  15.359330287   8.421337615
Cu       1.842709659  13.643047250   8.410013164
Cu       3.687312672  15.352033794   8.417865115
Cu       5.534885128  13.646031657   8.412181357
Cu       0.000846561   0.012564056  10.267570974
Cu       1.844764134   1.693285987  10.254042360
Cu       3.687746324   0.001393698  10.258709667
Cu       5.532684172   1.692531149  10.253854974
Cu      -0.001077025   3.380205477  10.274475019
Cu       1.840198413   5.097540315  10.315989765
Cu       3.689329664   3.387988129  10.273017999
Cu       5.537071203   5.098981529  10.313347744
Cu       0.002067501   6.829445131  10.347726921
Cu       1.842619142   8.549379598  10.351761913
Cu       3.686160085   6.824566497  10.342868581
Cu       5.534639914   8.550487510  10.342622458
Cu       0.001188050  10.278206565  10.318656266
Cu       1.842412260  11.997053478  10.271328464
Cu       3.687106136  10.282974724  10.315559461
Cu       5.535159015  11.992201480  10.269803389
Cu      -0.000593019  13.683049555  10.245568615
Cu       1.842738952  15.368247488  10.259421490
Cu       3.689268919  13.686781872  10.247291262
Cu       5.535045311  15.371994732  10.257729459
Cu      -0.000723568   1.669013789  12.126766350
Cu       1.839555205   0.005558698  12.140832393
Cu       3.689113143   1.654180116  12.097030013
Cu       5.538221669   0.006281733  12.139738483
Cu      -0.001487757   5.050821606  12.120601916
Cu       1.844636650   3.338368497  12.107546650
Cu       3.689648509   5.061806523  12.110876558
Cu       5.532650564   3.342309683  12.108770833
Cu      -0.000729360   8.576003327  12.175877735
Cu       1.835355765   6.797766597  12.173389068
Cu       3.688670961   8.569326085  12.153615145
Cu       5.541929279   6.805222203  12.160354421
Cu      -0.001295640  12.042670873  12.112657866
Cu       1.836073543  10.327279063  12.113592360
Cu       3.689582275  12.042526730  12.099986914
Cu       5.540925765  10.317627549  12.111840259
Cu       0.000705453  15.367246628  12.135287519
Cu       1.847058501  13.720666377  12.112942257
Cu       3.688224082  15.374790778  12.143557220
Cu       5.530769515  13.721374444  12.101586575
Cu      -0.005675234  -0.010064098  14.014900793
Cu       1.837343262   1.658361389  14.036900938
Cu       3.694451708   0.017569447  14.012725820
Cu       5.540202322   1.663989217  14.035356636
Cu      -0.002492607   3.289611191  13.981598176
Cu       1.828335759   4.934472187  13.987669097
Cu       3.690523890   3.281320212  13.915288679
Cu       5.549240719   4.947839860  13.990909375
Cu      -0.010764232   6.746018682  13.928464179
Cu       1.834779505   8.633088289  13.906163286
Cu       3.699604395   6.756008387  13.894001545
Cu       5.542127379   8.628862085  13.916474689
Cu       0.000190071  10.459512950  14.022332740
Cu       1.853544196  12.094881150  13.945683897
Cu       3.687531175  10.411719663  13.944100384
Cu       5.524006373  12.091768095  13.928796752
Cu       0.000858395  13.722366164  14.035726046
Cu       1.854952873  15.380845306  14.020622198
Cu       3.688045535  13.716214262  14.042710121
Cu       5.523090086  15.371086639  14.010174725
Cu       1.904165008  10.363622871  15.704597799
Cu       5.472116347  10.364820666  15.700935162
Cu       0.007248260   8.579437456  15.611453839
Cu       1.850669127   6.816041724  15.577459213
Cu       3.681172925   8.541011751  15.593860527
Cu       5.527132783   6.828733092  15.616816611
Cu      -0.002615969   5.043903104  15.752009147
Cu       3.691321577   5.011331006  15.659892143
C        0.000961968   0.665392140  17.808865170
C        0.000912630   2.086631338  17.872404325
C        1.230613064  -0.046958345  17.796909004
C        1.231553295   2.795942796  17.932328400
C        2.460145834   0.663605496  17.816270721
C        2.460392395   2.083939724  17.887212872
C        3.689884046  -0.048343461  17.796375173
C        3.689761136   2.792343574  17.939192219
C        4.919854200   0.663556475  17.818323256
C        4.919436014   2.083860092  17.889246264
C        6.149192304  -0.046967702  17.798998800
C        6.148125305   2.795723959  17.934128588
C        0.000708709   4.930735677  18.140828656
C        0.000917225   6.342599800  18.386678497
C        1.234301904   4.211037472  18.078507794
C        1.229028927   7.049773128  18.452164291
C        2.457276544   4.921929350  18.199493722
C        2.459558715   6.336578639  18.385679970
C        3.689730661   4.213732342  18.079110361
C        3.689214003   7.044076660  18.441313232
C        4.921898174   4.921510809  18.199002259
C        4.919514426   6.336868908  18.380856498
C        6.145465942   4.210876533  18.078963152
C        6.150103799   7.050236518  18.447037035
C        0.000481607   9.189332770  18.408672288
C        0.000594904  10.604779153  18.225453917
C        1.231878878   8.477159139  18.461235217
C        1.225776178  11.310157588  18.077944697
C        2.458431987   9.180507138  18.360965752
C        2.460450207  10.593698416  18.128991610
C        3.689527417   8.470012510  18.407126887
C        3.689543024  11.309187555  18.032525323
C        4.920294873   9.180761087  18.361587026
C        4.918723707  10.593894180  18.130338916
C        6.147239405   8.477656649  18.460541832
C        6.153325115  11.310223125  18.079118368
C        0.000794449  13.438614465  17.887924589
C        0.000771224  14.858189105  17.817711321
C        1.229282723  12.727918890  17.926905581
C        1.230582129  15.569426962  17.794150445
C        2.459385803  13.434805395  17.849315944
C        2.459869936  14.856328680  17.792150988
C        3.689680709  12.722408103  17.890889655
C        3.690044298  15.567945449  17.781497766
C        4.920223232  13.434853417  17.850806556
C        4.919713938  14.856350824  17.793823107
C        6.150067810  12.727925896  17.928235833
C        6.149432246  15.569458098  17.796063389
K_POINTS automatic
4 2 1  0 0 0
CELL_PARAMETERS angstrom
7.378073983 0.000000000 0.0000000000
0.000000000 17.038932 0.0000000000
0.000000000 0.000000000 25.00
