&control
    calculation = 'relax'
    prefix = 'gc'
    pseudo_dir = '/home/549/hxw549/Short/pseudopotentials/'
    outdir = './'
    restart_mode = 'from_scratch'
    etot_conv_thr = 1.d-6
    forc_conv_thr = 1.d-5
    
/

&system
    ibrav = 0
    nat = 184
    ntyp = 5
    ecutwfc = 80
    occupations = 'smearing'
    smearing = 'gaussian'
    degauss = 0.1
    vdw_corr='grimme-d2'
/

&electrons
    diagonalization = 'david'
    diago_thr_init = 1.d-4
    mixing_mode = 'local-TF'
    mixing_beta = 0.7
    conv_thr =  1.d-8
    	

/	

&ions
    
/


ATOMIC_SPECIES
Cu 63.546 Cu.pbe-n-van_ak.UPF
C_h 12.0107 C.star1s-pbe-mt_gipaw.UPF
C   12.0107 C.pbe-mt_gipaw.UPF
O   15.9994 O.pbe-van_gipaw.UPF
H  1.007825032 H.pbe-van_ak.UPF


ATOMIC_POSITIONS angstrom
Cu       0.000000000   0.000405813   7.356885041
Cu       1.844471259   1.704156632   7.358173564
Cu       3.689036991   0.000239567   7.357092042
Cu       5.533602724   1.704156632   7.358173564
Cu       0.000000000   3.407520480   7.358535944
Cu       1.844405633   5.111309978   7.357404890
Cu       3.689036991   3.407726764   7.358295839
Cu       5.533668350   5.111309978   7.357404890
Cu       0.000000000   6.815524493   7.356462181
Cu       1.844633858   8.519772483   7.357010633
Cu       3.689036991   6.815448410   7.356533959
Cu       5.533440125   8.519772483   7.357010633
Cu       0.000000000  10.223467620   7.358077118
Cu       1.844536056  11.927110754   7.358393848
Cu       3.689036991  10.223799605   7.358225729
Cu       5.533537927  11.927110754   7.358393848
Cu       0.000000000  13.630941714   7.357446835
Cu       1.844552431  15.334973805   7.356543789
Cu       3.689036991  13.630633661   7.357315662
Cu       5.533521552  15.334973805   7.356543789
Cu       0.000000000   1.702923316   9.191342767
Cu       1.844451451  -0.000741436   9.189970778
Cu       3.689036991   1.703542711   9.190710587
Cu       5.533622532  -0.000741436   9.189970778
Cu       0.000000000   5.112832923   9.190425093
Cu       1.844425864   3.408145965   9.191221333
Cu       3.689036991   5.112284576   9.190210160
Cu       5.533648119   3.408145965   9.191221333
Cu       0.000000000   8.518826303   9.189908528
Cu       1.844510912   6.815753512   9.189522162
Cu       3.689036991   8.518551213   9.189991413
Cu       5.533563071   6.815753512   9.189522162
Cu       0.000000000  11.927420495   9.190836281
Cu       1.844630436  10.222688480   9.190984139
Cu       3.689036991  11.927794357   9.191626032
Cu       5.533443547  10.222688480   9.190984139
Cu       0.000000000  15.335314209   9.189528236
Cu       1.844623114  13.632014386   9.190295768
Cu       3.689036991  15.335145085   9.189516041
Cu       5.533450869  13.632014386   9.190295768
Cu       0.000000000  -0.002335405  11.033446995
Cu       1.844690811   1.702274436  11.031515013
Cu       3.689036991  -0.001521793  11.032282704
Cu       5.533383172   1.702274436  11.031515013
Cu       0.000000000   3.408860440  11.030694091
Cu       1.844762151   5.113899303  11.032319988
Cu       3.689036991   3.408586561  11.031842168
Cu       5.533311832   5.113899303  11.032319988
Cu       0.000000000   6.816435508  11.033537877
Cu       1.844284728   8.517495404  11.032751948
Cu       3.689036991   6.815595309  11.033267633
Cu       5.533789255   8.517495404  11.032751948
Cu       0.000000000  10.221921140  11.031763257
Cu       1.844400353  11.928150152  11.031201258
Cu       3.689036991  10.221420425  11.031259621
Cu       5.533673630  11.928150152  11.031201258
Cu       0.000000000  13.632983059  11.031952917
Cu       1.844466455  15.335509396  11.033273130
Cu       3.689036991  13.633743760  11.032860466
Cu       5.533607528  15.335509396  11.033273130
Cu       0.000000000   1.704849676  12.868020117
Cu       1.845304667  -0.000958991  12.875164762
Cu       3.689036991   1.701435019  12.871834360
Cu       5.532769316  -0.000958991  12.875164762
Cu       0.000000000   5.111593848  12.871982312
Cu       1.846685646   3.408361828  12.868355550
Cu       3.689036991   5.113756932  12.875753530
Cu       5.531388337   3.408361828  12.868355550
Cu       0.000000000   8.518524631  12.877423701
Cu       1.844594066   6.815749422  12.877434946
Cu       3.689036991   8.518719315  12.874044883
Cu       5.533479917   6.815749422  12.877434946
Cu       0.000000000  11.928682701  12.870470888
Cu       1.842630126  10.222401515  12.869423852
Cu       3.689036991  11.926540449  12.866916090
Cu       5.535443857  10.222401515  12.869423852
Cu       0.000000000  15.333659164  12.878499717
Cu       1.843376078  13.632270333  12.873221629
Cu       3.689036991  15.336815782  12.877746551
Cu       5.534697905  13.632270333  12.873221629
Cu       0.000000000   0.007918622  14.687507712
Cu       1.846771581   1.707763551  14.686203947
Cu       3.689036991   0.000974951  14.700783320
Cu       5.531302402   1.707763551  14.686203947
Cu       0.000000000   3.407461959  14.683965253
Cu       1.850858249   5.106755419  14.690690701
Cu       3.689036991   3.403433615  14.692489316
Cu       5.527215734   5.106755419  14.690690701
Cu       0.000000000   6.806044039  14.694760657
Cu       1.838768617   8.523735316  14.695177185
Cu       3.689036991   6.823490648  14.700590044
Cu       5.539305366   8.523735316  14.695177185
Cu       0.000000000  10.230199146  14.695172294
Cu       1.844158103  11.925041719  14.685222023
Cu       3.689036991  10.224058349  14.687129622
Cu       5.533915880  11.925041719  14.685222023
Cu       0.000000000  13.626087465  14.699772691
Cu       1.842709416  15.333976924  14.693762430
Cu       3.689036991  13.625803521  14.685403209
Cu       5.535364567  15.333976924  14.693762430
C        0.000000000   0.710410889  17.625418517
C        0.000000000   2.130157561  17.634853030
C        1.229405660   0.000324303  17.617906717
C        1.228805029   2.839717875  17.623921317
C        2.457941288   0.709889452  17.604230408
C        2.457921807   2.129647602  17.601841008
C        3.689036991  -0.000628449  17.593836883
C        3.689036991   2.840374761  17.592449904
C        4.920132694   0.709889452  17.604230408
C        4.920152175   2.129647602  17.601841008
C        6.148668323   0.000324303  17.617906717
C        6.149268954   2.839717875  17.623921317
C        0.000000000   4.967792551  17.628442214
C        0.000000000   6.391092795  17.603639183
C        1.227618468   4.260239219  17.617934895
C        1.223735189   7.094256502  17.610937289
C        2.462595556   4.968211453  17.592133886
C        2.486342724   6.420028425  17.653647163
C        3.689036991   4.258452081  17.599958631
C        3.689036991   7.058582534  18.093752104
C        4.915478426   4.968211453  17.592133886
C        4.891731258   6.420028425  17.653647163
C        6.150455515   4.260239219  17.617934895
C        6.154338794   7.094256502  17.610937289
C        0.000000000   9.237149241  17.578665088
C        0.000000000  10.650689929  17.597892259
C        1.268508684   8.527816489  17.640657340
C        1.227845871  11.356438876  17.592827689
C        2.428428459   9.246753666  18.077373531
C        2.471952821  10.613494708  17.663758151
C        3.689036991   8.521598942  18.563199872
C        3.689036991  11.368878726  17.633985038
C        4.949645523   9.246753666  18.077373531
C        4.906121161  10.613494708  17.663758151
C        6.109565299   8.527816489  17.640657340
C        6.150228112  11.356438876  17.592827689
C        0.000000000  13.488910767  17.591274483
C        0.000000000  14.909669022  17.607323958
C        1.232210404  12.779262136  17.599879904
C        1.229404785  15.619427444  17.608065826
C        2.459810906  13.490139582  17.620488751
C        2.459998205  14.908276143  17.611819030
C        3.689036991  12.776567548  17.626144196
C        3.689036991  15.618730629  17.611744551
C        4.918263076  13.490139582  17.620488751
C        4.918075777  14.908276143  17.611819030
C        6.145863579  12.779262136  17.599879904
C        6.148669198  15.619427444  17.608065826
C        0.000000000   3.550107090  20.932171112
C        1.230285887   4.259987618  20.926639469
C        2.458189348   3.548651191  20.901911028
C        3.689036991   4.262860488  20.896899654
C        4.919884634   3.548651191  20.901911028
C        6.147788096   4.259987618  20.926639469
C        0.000000000   6.388628810  20.918652810
C        0.000000000   7.803016418  20.932630986
C        1.227152955   5.682368556  20.929007095
C        1.264446021   8.508714110  20.869846291
C        2.466744584   6.424623676  20.859622898
C        2.405860652   7.779287717  20.482496472
C        3.689036991   5.670498560  20.896013831
C        3.689036991   8.523668114  20.081453712
C        4.911329398   6.424623676  20.859622898
C        4.972213330   7.779287717  20.482496472
C        6.150921028   5.682368556  20.929007095
C        6.113627962   8.508714110  20.869846291
C        0.000000000  10.645605545  20.908123380
C        0.000000000  12.072354702  20.890787394
C        1.223909858   9.945084914  20.904986845
C        1.229248812  12.778159445  20.905146402
C        2.485230265  10.623521329  20.873402937
C        2.463385113  12.070761973  20.932610048
C        3.689036991   9.998055909  20.494474694
C        3.689036991  12.780095141  20.929808160
C        4.892843717  10.623521329  20.873402937
C        4.914688869  12.070761973  20.932610048
C        6.154164125   9.945084914  20.904986845
C        6.148825171  12.778159445  20.905146402
O        1.229248812  13.778159445  20.905146402
O        3.689036991  13.780095141  20.929808160
O        6.148825171  13.778159445  20.905146402
O        0.000000000   2.550107090  20.932171112
O        2.458189348   2.548651191  20.901911028
O        4.919884634   2.548651191  20.901911028


K_POINTS automatic
4 2 1  0 0 0

CELL_PARAMETERS angstrom
7.378073983 0.000000000 0.0000000000
0.000000000 17.038932 0.0000000000
0.000000000 0.000000000 28.00
