 &inputpp
    prefix  = 'AlAs110'
    outdir='/short/y35/tjf502/QE-5.4.0-bw/tempdir/',
    filplot = 'AlAsresm-1.0'
    sample_bias=-0.0735d0,
    plot_num= 5
 /
 &plot
   nfile=1
   filepp(1)='AlAsresm-1.0'
   weight(1)=1.0
   iflag=2
   output_format=2
   e1(1)=7.0, e1(2)=0.0,     e1(3)=0.0
   e2(1)=0.0, e2(2)=7.07107, e2(3)=0.0
   x0(1)=0.0, x0(2)=-0.18,   x0(3)=3.25
   nx=36 ,ny=56
   fileout='AlAs110-1.0'
 /
