&control
    calculation = 'scf'
    prefix = 'gc'
    pseudo_dir = '/home/549/hxw549/Short/pseudopotentials/'
    outdir = './'
    restart_mode = 'from_scratch'
    etot_conv_thr = 1.d-6
    forc_conv_thr = 1.d-5
    
/

&system
    ibrav = 0
    nat = 50
    ntyp = 5
    ecutwfc = 80
    occupations = 'smearing'
    smearing = 'gaussian'
    degauss = 0.1
    vdw_corr='grimme-d2'
    tot_charge=1
/

&electrons
    diagonalization = 'david'
    diago_thr_init = 1.d-4
    mixing_mode = 'local-TF'
    mixing_beta = 0.7
    conv_thr =  1.d-8
/	

&ions
    
/


ATOMIC_SPECIES
Cu 63.546 Cu.pbe-n-van_ak.UPF
C_h 12.0107 C.star1s-pbe-mt_gipaw.UPF
C   12.0107 C.pbe-mt_gipaw.UPF
O   15.9994 O.pbe-van_gipaw.UPF
H  1.007825032 H.pbe-van_ak.UPF


ATOMIC_POSITIONS angstrom
C        0.002592640   0.735008259  17.615874748
C        0.002730709   2.154434416  17.626365002
C        1.231851776   0.024655006  17.609032654
C        1.231240098   2.864043495  17.617785011
C        2.460299691   0.734372769  17.590037055
C        2.460310162   2.154379724  17.594055415
C        3.691570206   0.023764952  17.571583178
C        3.691875989   2.864497944  17.586303372
C        4.922885885   0.734355134  17.591525054
C        4.923110983   2.154247430  17.595711930
C        6.151349791   0.024656683  17.609902108
C        6.152378801   2.864055563  17.619462072
C        0.002770562   4.993605535  17.612950392
C        0.002733701   6.413127510  17.581771917
C        1.230819605   4.283856593  17.610107560
C        1.233214247   7.123388547  17.580473014
C        2.461348022   4.993922986  17.589700786
C        2.461223039   6.413766469  17.581138849
C        3.691910729   4.284252332  17.591671015
C        3.692055562   7.124204395  17.574040620
C        4.922294977   4.993852575  17.590417914
C        4.922387939   6.413626111  17.583716242
C        6.152591856   4.283773515  17.611054125
C        6.150379469   7.123311890  17.582812064
C        0.003084901   9.253208361  17.579093401
C        0.002945729  10.673500590  17.578556829
C        1.233310809   8.543483325  17.575698369
C        1.234453100  11.383434595  17.596816145
C        2.463996459   9.253613324  17.598972377
C        2.463530815  10.673245407  17.619057915
C        3.692001329   8.544013344  17.596660295
C        3.692004076  11.383186190  17.636983451
C        4.920019832   9.253669243  17.601478759
C        4.920412571  10.673398284  17.620704620
C        6.150710293   8.543358725  17.578234250
C        6.149629826  11.383482411  17.598909248
C        0.002666865  13.514055455  17.585833766
C        0.002459322  14.934225023  17.607548218
C        1.233935286  12.803374571  17.600698540
C        1.231613514  15.643765266  17.604347155
C        2.462686995  13.512747188  17.616883390
C        2.462413507  14.932967945  17.599420899
C        3.691707793  12.802774152  17.629676472
C        3.691454987  15.642620029  17.590261838
C        4.920722378  13.512739019  17.617390702
C        4.920563905  14.933010444  17.599712719
C        6.149511414  12.803511534  17.601683078
C        6.151322418  15.643778330  17.604603455
C_h        3.554406602   7.045132642  25
O        2.806664418   7.925669507  25

K_POINTS automatic
4 2 1  0 0 0

CELL_PARAMETERS angstrom
7.378073983 0.000000000 0.0000000000
0.000000000 17.038932 0.0000000000
0.000000000 0.000000000 25.00
