&control
    calculation = 'relax'
    prefix = 'gc'
    pseudo_dir = '/home/549/hxw549/Short/pseudopotentials/'
    outdir = './'
    restart_mode = 'from_scratch'
    etot_conv_thr = 1.d-6
    forc_conv_thr = 1.d-5
    nstep = 200
/

&system
    ibrav = 0
    nat = 180
    ntyp = 3
    ecutwfc = 40
    ecutrho = 180
    occupations = 'smearing'
    smearing = 'gaussian'
    degauss = 0.1
    vdw_corr='grimme-d2'
/

&electrons
    diagonalization = 'david'
    diago_thr_init = 1.d-4
    mixing_mode = 'plain'
    mixing_beta = 0.7
    conv_thr =  1.d-6
    	

/	

&ions
    
/


ATOMIC_SPECIES
Cu 63.546 Cu.pbe-n-van_ak.UPF
C   12.0107 C.pbe-mt_gipaw.UPF
C_h 12.0107 C.star1s-pbe-mt_gipaw.UPF



ATOMIC_POSITIONS angstrom
Cu       0       0       7.351413305
Cu      4.86478226      0       7.351413305
Cu      9.72956452      0       7.351413305
Cu      0       2.736440021     7.351413305
Cu      4.86478226      2.736440021     7.351413305
Cu      9.72956452      2.736440021     7.351413305
Cu      0       5.472880043     7.351413305
Cu      4.86478226      5.472880043     7.351413305
Cu      9.72956452      5.472880043     7.351413305
Cu      0       8.209320064     7.351413305
Cu      4.86478226      8.209320064     7.351413305
Cu      9.72956452      8.209320064     7.351413305
Cu      2.43239113      1.368220011     7.351413305
Cu      7.29717339      1.368220011     7.351413305
Cu      12.16195565     1.368220011     7.351413305
Cu      2.43239113      4.104660032     7.351413305
Cu      7.29717339      4.104660032     7.351413305
Cu      12.16195565     4.104660032     7.351413305
Cu      2.43239113      6.841100053     7.351413305
Cu      7.29717339      6.841100053     7.351413305
Cu      12.16195565     6.841100053     7.351413305
Cu      2.43239113      9.577540074     7.351413305
Cu      7.29717339      9.577540074     7.351413305
Cu      12.16195565     9.577540074     7.351413305
Cu      2.43239113      0       9.175706653
Cu      7.29717339      0       9.175706653
Cu      12.16195565     0       9.175706653
Cu      2.43239113      2.736440021     9.175706653
Cu      7.29717339      2.736440021     9.175706653
Cu      12.16195565     2.736440021     9.175706653
Cu      2.43239113      5.472880043     9.175706653
Cu      7.29717339      5.472880043     9.175706653
Cu      12.16195565     5.472880043     9.175706653
Cu      2.43239113      8.209320064     9.175706653
Cu      7.29717339      8.209320064     9.175706653
Cu      12.16195565     8.209320064     9.175706653
Cu      0       1.368220011     9.175706653
Cu      4.86478226      1.368220011     9.175706653
Cu      9.72956452      1.368220011     9.175706653
Cu      0       4.104660032     9.175706653
Cu      4.86478226      4.104660032     9.175706653
Cu      9.72956452      4.104660032     9.175706653
Cu      0       6.841100053     9.175706653
Cu      4.86478226      6.841100053     9.175706653
Cu      9.72956452      6.841100053     9.175706653
Cu      0       9.577540074     9.175706653
Cu      4.86478226      9.577540074     9.175706653
Cu      9.72956452      9.577540074     9.175706653
Cu      0       0       11
Cu      4.86478226      0       11
Cu      9.72956452      0       11
Cu      0       2.736440021     11
Cu      4.86478226      2.736440021     11
Cu      9.72956452      2.736440021     11
Cu      0       5.472880043     11
Cu      4.86478226      5.472880043     11
Cu      9.72956452      5.472880043     11
Cu      0       8.209320064     11
Cu      4.86478226      8.209320064     11
Cu      9.72956452      8.209320064     11
Cu      2.43239113      1.368220011     11
Cu      7.29717339      1.368220011     11
Cu      12.16195565     1.368220011     11
Cu      2.43239113      4.104660032     11
Cu      7.29717339      4.104660032     11
Cu      12.16195565     4.104660032     11
Cu      2.43239113      6.841100053     11
Cu      7.29717339      6.841100053     11
Cu      12.16195565     6.841100053     11
Cu      2.43239113      9.577540074     11
Cu      7.29717339      9.577540074     11
Cu      12.16195565     9.577540074     11
Cu      2.43239113      0       12.82429335
Cu      7.29717339      0       12.82429335
Cu      12.16195565     0       12.82429335
Cu      2.43239113      2.736440021     12.82429335
Cu      7.29717339      2.736440021     12.82429335
Cu      12.16195565     2.736440021     12.82429335
Cu      2.43239113      5.472880043     12.82429335
Cu      7.29717339      5.472880043     12.82429335
Cu      12.16195565     5.472880043     12.82429335
Cu      2.43239113      8.209320064     12.82429335
Cu      7.29717339      8.209320064     12.82429335
Cu      12.16195565     8.209320064     12.82429335
Cu      0       1.368220011     12.82429335
Cu      4.86478226      1.368220011     12.82429335
Cu      9.72956452      1.368220011     12.82429335
Cu      0       4.104660032     12.82429335
Cu      4.86478226      4.104660032     12.82429335
Cu      9.72956452      4.104660032     12.82429335
Cu      0       6.841100053     12.82429335
Cu      4.86478226      6.841100053     12.82429335
Cu      9.72956452      6.841100053     12.82429335
Cu      0       9.577540074     12.82429335
Cu      4.86478226      9.577540074     12.82429335
Cu      9.72956452      9.577540074     12.82429335
Cu      0       0       14.6485867
Cu      4.86478226      0       14.6485867
Cu      9.72956452      0       14.6485867
Cu      0       2.736440021     14.6485867
Cu      4.86478226      2.736440021     14.6485867
Cu      9.72956452      2.736440021     14.6485867
Cu      0       5.472880043     14.6485867
Cu      4.86478226      5.472880043     14.6485867
Cu      9.72956452      5.472880043     14.6485867
Cu      0       8.209320064     14.6485867
Cu      4.86478226      8.209320064     14.6485867
Cu      9.72956452      8.209320064     14.6485867
Cu      2.43239113      1.368220011     14.6485867
Cu      7.29717339      1.368220011     14.6485867
Cu      12.16195565     1.368220011     14.6485867
Cu      2.43239113      4.104660032     14.6485867
Cu      7.29717339      4.104660032     14.6485867
Cu      12.16195565     4.104660032     14.6485867
Cu      2.43239113      6.841100053     14.6485867
Cu      7.29717339      6.841100053     14.6485867
Cu      12.16195565     6.841100053     14.6485867
Cu      2.43239113      9.577540074     14.6485867
Cu      7.29717339      9.577540074     14.6485867
Cu      12.16195565     9.577540074     14.6485867

C	1.198223822	0.725472467	17.6485867
C	-0.029828374	1.461782638	17.6485867
C	3.633258847	0.73111944	17.6485867
C	2.402873997	1.461935627	17.6485867
C	6.063576779	0.729800684	17.6485867
C	4.839151748	1.467445132	17.6485867
C	8.493634176	0.729615065	17.6485867
C	7.263763016	1.467392756	17.6485867
C	10.92667054	0.725475729	17.6485867
C	9.698522072	1.462045993	17.6485867
C	13.36030921	0.725768649	17.6485867
C	12.13152279	1.461479014	17.6485867
C	-0.065408473	2.916416349	17.6485867
C	-1.294211316	3.651965954	17.6485867
C	2.36751377	2.916181355	17.6485867
C	1.139007099	3.65251669	17.6485867
C	4.801213705	2.92576613	17.6485867
C	3.569562019	3.650959579	17.6485867
C	7.228760646	2.925975347	17.6485867
C	6.002260419	3.655998	17.6485867
C	9.662520507	2.916201714	17.6485867
C	8.43686	3.651495002	17.6485867
C	12.09581794	2.916185218	17.6485867
C	10.86711988	3.652742052	17.6485867
C	-1.32960377	5.105919977	17.6485867
C	-2.559744675	5.841498566	17.6485867
C	1.107111698	5.105861056	17.6485867
C	-0.123679445	5.841262346	17.6485867
C	3.544213496	5.102474843	17.6485867
C	2.312794307	5.842958873	17.6485867
C_h	5.966927869	5.103717887	17.6485867
C	4.74197543	5.836672602	17.6485867
C	8.391137799	5.103562895	17.6485867
C	7.168515923	5.837166136	17.6485867
C	10.82848064	5.106242362	17.6485867
C	9.598521719	5.843593147	17.6485867
C	-2.593614566	7.295274239	17.6485867
C	-3.821069121	8.030991127	17.6485867
C	-0.159755848	7.29512021	17.6485867
C	-1.388749265	8.030894641	17.6485867
C	2.273232568	7.293355151	17.6485867
C	1.044163436	8.030597507	17.6485867
C	4.709790043	7.285798494	17.6485867
C	3.477581532	8.023547989	17.6485867
C	7.13062275	7.28527	17.6485867
C	5.907813756	8.029763123	17.6485867
C	9.567750569	7.293641613	17.6485867
C	8.339194032	8.022208009	17.6485867
C	-3.856418808	9.484404846	17.6485867
C	-5.08652721	10.2161973	17.6485867
C	-1.423930329	9.485288114	17.6485867
C	-2.651767745	10.22166081	17.6485867
C	1.008143634	9.484067016	17.6485867
C	-0.219559967	10.22032859	17.6485867
C	3.440967837	9.480178841	17.6485867
C	2.211798769	10.21893737	17.6485867
C	5.871604046	9.480636855	17.6485867
C	4.643166044	10.21724241	17.6485867
C	8.303457047	9.478299936	17.6485867
C	7.076986675	10.21643107	17.6485867


K_POINTS automatic
1 1  1  0 0 0

CELL_PARAMETERS angstrom
14.59434678 0.000000000 0.0000000000
0.000000000 10.94576009 0.0000000000
0.000000000 0.000000000 25.000000000
