&control
    calculation = 'scf'
    prefix = 'gc'
    pseudo_dir = '/home/549/hxw549/Short/pseudopotentials/'
    outdir = './'
    restart_mode = 'from_scratch'
    etot_conv_thr = 1.d-6
    forc_conv_thr = 1.d-5
    
/

&system
    ibrav = 0
    nat = 154
    ntyp = 4
    ecutwfc = 80
    occupations = 'smearing'
    smearing = 'gaussian'
    degauss = 0.1
    vdw_corr='grimme-d2'
    tot_charge=1
/

&electrons
    diagonalization = 'david'
    diago_thr_init = 1.d-4
    mixing_mode = 'local-TF'
    mixing_beta = 0.7
    conv_thr =  1.d-8
    	

/	

&ions
    
/


ATOMIC_SPECIES
Cu 63.546 Cu.pbe-n-van_ak.UPF
C_h 12.0107 C.star1s-pbe-mt_gipaw.UPF
C   12.0107 C.pbe-mt_gipaw.UPF
H  1.007825032 H.pbe-van_ak.UPF


ATOMIC_POSITIONS angstrom
Cu       0.001507225  -0.018974067   7.335360727
Cu       1.846446307   1.656229798   7.330830570
Cu       3.690808377  -0.028672875   7.322550747
Cu       5.535075046   1.656424379   7.330627582
Cu       0.001760038   3.362681857   7.330119754
Cu       1.850163740   5.088326470   7.340972425
Cu       3.690816418   3.367175262   7.343912749
Cu       5.531521019   5.088307566   7.340835508
Cu       0.002022657   6.817109912   7.336985174
Cu       1.850039890   8.550445919   7.335954823
Cu       3.690681327   6.816986758   7.344810370
Cu       5.531493401   8.550266107   7.335707075
Cu       0.001479464  10.286361334   7.316971075
Cu       1.845912618  12.004435158   7.312482187
Cu       3.690860588  10.282564574   7.329979027
Cu       5.535373680  12.004446376   7.312676414
Cu       0.001630790  13.687006745   7.323036630
Cu       1.841437794  15.355006062   7.327812145
Cu       3.690486733  13.696647651   7.305831604
Cu       5.539773101  15.354860662   7.328076593
Cu       0.001831491   1.654851369   9.184106108
Cu       1.843604445  -0.024825284   9.201718925
Cu       3.690906353   1.639596785   9.165338651
Cu       5.538079353  -0.024268770   9.202189005
Cu       0.001967892   5.076579631   9.138975819
Cu       1.844195522   3.347902341   9.153195743
Cu       3.691208264   5.080868000   9.159439361
Cu       5.537791847   3.347780291   9.153085956
Cu       0.001827156   8.571083083   9.125625173
Cu       1.845626769   6.821911706   9.148398738
Cu       3.691116773   8.566479822   9.143575115
Cu       5.536559809   6.821839576   9.148070166
Cu       0.001621987  12.008943330   9.158675599
Cu       1.844970791  10.309942117   9.127792726
Cu       3.690808136  12.025349114   9.141094069
Cu       5.536633468  10.309733264   9.127964292
Cu       0.001530925  15.351693648   9.205034429
Cu       1.842778932  13.689867314   9.184899517
Cu       3.690968896  15.347678549   9.197024664
Cu       5.538777142  13.689476521   9.185205582
Cu       0.001722115  -0.018798574  11.083645722
Cu       1.839350585   1.663369015  11.045318480
Cu       3.691408482  -0.020036676  11.061725281
Cu       5.543113380   1.663768004  11.045844784
Cu       0.002387207   3.358484580  11.002464208
Cu       1.837042233   5.063678414  10.948453224
Cu       3.691147881   3.334414528  10.969508809
Cu       5.545723124   5.063523089  10.948964789
Cu       0.002132925   6.829711246  10.926627713
Cu       1.838974848   8.601311377  10.924899650
Cu       3.691651978   6.829507339  10.933631046
Cu       5.543338680   8.601001276  10.925268507
Cu       0.001873620  10.312359657  10.967545269
Cu       1.840634783  12.006924681  11.012487983
Cu       3.691172930  10.330402620  10.941397786
Cu       5.541428111  12.006590907  11.013279917
Cu       0.001899056  13.677575225  11.070800190
Cu       1.848394072  15.346933993  11.087945053
Cu       3.691027001  13.674362561  11.059470708
Cu       5.533603330  15.346719114  11.087744000
Cu       0.002167007   1.700637099  12.918950152
Cu       1.845154981   0.004606408  12.951440025
Cu       3.691704853   1.680458550  12.879357671
Cu       5.537519642   0.004151938  12.951686830
Cu       0.003440878   5.107294847  12.782008291
Cu       1.841329186   3.391416534  12.855484708
Cu       3.691925888   5.048883603  12.696784440
Cu       5.542127668   3.392736347  12.856648415
Cu       0.002274444   8.586192562  12.739475892
Cu       1.831633864   6.846386486  12.670042606
Cu       3.691520562   8.637550884  12.672520089
Cu       5.551100383   6.845578350  12.671543199
Cu       0.001955947  11.965454998  12.905210387
Cu       1.840381736  10.303880738  12.805251991
Cu       3.691537125  11.965315788  12.878432554
Cu       5.542129447  10.302717917  12.806948969
Cu       0.002428163  15.340829880  12.966510901
Cu       1.847708359  13.646862649  12.942865883
Cu       3.691089948  15.348840102  12.957341451
Cu       5.534928909  13.647251393  12.942783645
Cu       0.002349194   0.030381401  14.781370781
Cu       1.835400522   1.746532854  14.765915668
Cu       3.691514215   0.041259546  14.779766514
Cu       5.548105033   1.747367220  14.766438160
Cu       0.003813152   3.481890151  14.707219767
Cu       1.853183601   5.178994069  14.559083018
Cu       3.691941777   3.403621962  14.638210858
Cu       5.533095286   5.180094778  14.558111417
Cu       0.004957144   6.868575510  14.512840950
Cu       1.823928589   8.571755361  14.508636535
Cu       3.691515062   6.894466323  14.277834278
Cu       5.558796853   8.567819958  14.510283338
Cu       0.001739264  10.219038123  14.719074693
Cu       1.850364735  11.907494159  14.756752777
Cu       3.691856348  10.218640737  14.657130092
Cu       5.532098709  11.907615162  14.757065184
Cu       0.001950063  13.611154140  14.787106781
Cu       1.847318604  15.341744636  14.784302059
Cu       3.691680168  13.614626531  14.762510960
Cu       5.535421336  15.342028521  14.784439517
C       -0.000605348   0.734060292  17.837957598
C       -0.000562573   2.149420086  18.061812171
C        1.229511379   0.017462644  17.766668009
C        1.229985651   2.851191363  18.215130191
C        2.459394401   0.731043539  17.850032182
C        2.460387113   2.146374798  18.076632169
C        3.688877815   0.012648565  17.775478357
C        3.688787217   2.853982673  18.231757423
C        4.918417249   0.732391247  17.847506260
C        4.917188556   2.147612553  18.077057027
C        6.147808953   0.017544431  17.766276279
C        6.147615680   2.852621549  18.214928229
C        0.000297384   4.958210557  18.643061235
C       -0.000727227   6.384096999  18.768458224
C        1.230738662   4.248240625  18.533158422
C        1.228892006   7.103221095  18.788467283
C        2.457128596   4.952367974  18.718433458
C        2.456353014   6.381888389  18.876587781
C_h        3.688799503   4.248909987  18.567086911
C        3.688291195   7.103625479  18.878621048
C        4.920429103   4.953207372  18.717100410
C        4.919621140   6.381977088  18.878036632
C        6.147337988   4.250553922  18.528561082
C        6.147388428   7.102795769  18.785402447
C       -0.000179135   9.222996437  18.425157257
C       -0.000514649  10.622692131  18.125211703
C        1.230106722   8.521477656  18.586375924
C        1.230743935  11.328350677  17.992393995
C        2.462222083   9.226638212  18.461462412
C        2.461078674  10.626002488  18.148474685
C        3.689207736   8.521138289  18.638966889
C        3.688699146  11.336230972  18.019219398
C        4.916405747   9.228375396  18.464917356
C        4.916211871  10.626846907  18.147480874
C        6.147679955   8.521688456  18.586810009
C        6.146579712  11.329771603  17.992631840
C        0.000085439  13.467347462  17.721070114
C        0.000144633  14.901806786  17.682748204
C        1.230808028  12.747268257  17.789809046
C        1.228999733  15.623821774  17.687029836
C        2.458259822  13.469723394  17.756223684
C        2.458768171  14.901446039  17.695909570
C        3.688572138  12.756045314  17.830981764
C        3.689109836  15.620024419  17.708805883
C        4.919203022  13.470154677  17.757004054
C        4.919269910  14.901731872  17.695668971
C        6.146875453  12.749103184  17.793738222
C        6.149308891  15.623910439  17.688750407
H        2.449164828   7.356624879  16.506444590
H        2.490800471   5.528257811  16.402366717
C        2.981816283   6.480707167  16.131920190
C        4.415114543   6.493138070  16.126583482
H        4.933370882   7.377732044  16.501729216
H        4.924789838   5.550744289  16.399310611


K_POINTS automatic
4 2 1  0 0 0

CELL_PARAMETERS angstrom
7.378073983 0.000000000 0.0000000000
0.000000000 17.038932 0.0000000000
0.000000000 0.000000000 25.00
