&control
    calculation = 'scf'
    prefix = 'gc'
    pseudo_dir = '/home/549/hxw549/Short/pseudopotentials/'
    outdir = './'
    restart_mode = 'from_scratch'
    etot_conv_thr = 1.d-6
    forc_conv_thr = 1.d-5
/
&system
    ibrav = 0
    nat = 136
    ntyp = 5
    ecutwfc = 80
    occupations = 'smearing'
    smearing = 'gaussian'
    degauss = 0.1
    vdw_corr='grimme-d2'
    tot_charge = 1
/
&electrons
    diagonalization = 'david'
    diago_thr_init = 1.d-4
    mixing_mode = 'local-TF'
    mixing_beta = 0.7
    conv_thr =  1.d-8
/	
&ions
/
ATOMIC_SPECIES
Cu 63.546 Cu.pbe-n-van_ak.UPF
C_h 12.0107 C.star1s-pbe-mt_gipaw.UPF
C   12.0107 C.pbe-mt_gipaw.UPF
O   15.9994 O.pbe-van_gipaw.UPF
H  1.007825032 H.pbe-van_ak.UPF
ATOMIC_POSITIONS angstrom
Cu      -0.002337509  -0.010316124   7.418800315
Cu       1.845590534   1.693677538   7.417058935
Cu       3.692098024  -0.010455793   7.419374304
Cu       5.532683030   1.702093990   7.417471116
Cu       0.002814370   3.410489623   7.419669266
Cu       1.843289620   5.124220721   7.425905103
Cu       3.685660674   3.412758174   7.420772436
Cu       5.533447248   5.119804546   7.423916840
Cu      -0.002020412   6.830347086   7.422585326
Cu       1.844494050   8.534072050   7.414653012
Cu       3.689360576   6.828347673   7.421962113
Cu       5.532154683   8.534619731   7.412248372
Cu      -0.000010133  10.236831689   7.407286644
Cu       1.844173365  11.937230966   7.410377527
Cu       3.688241864  10.238355896   7.408615363
Cu       5.533936196  11.938558143   7.409976286
Cu       0.001397825  13.634842110   7.415067550
Cu       1.845121238  15.332535543   7.418688233
Cu       3.688320783  13.633848548   7.414952261
Cu       5.533825967  15.326606985   7.419826588
Cu      -0.000288397   1.693929151   9.244214631
Cu       1.844591887  -0.013507292   9.255539347
Cu       3.688218645   1.693627646   9.244396033
Cu       5.533756193  -0.011747293   9.249281333
Cu      -0.002174230   5.122201997   9.252520901
Cu       1.843445630   3.404907670   9.247552930
Cu       3.686299265   5.123227211   9.256462142
Cu       5.531471185   3.406192240   9.249214254
Cu      -0.003375641   8.542862452   9.249345715
Cu       1.842318598   6.837233121   9.251869750
Cu       3.687818249   8.540793326   9.247646588
Cu       5.530543720   6.836549067   9.250653893
Cu      -0.001059954  11.933955002   9.253401694
Cu       1.842382184  10.239798615   9.246714983
Cu       3.688703231  11.936588465   9.254541858
Cu       5.532199042  10.239502007   9.246356813
Cu       0.000731741  15.324454048   9.260182667
Cu       1.844497301  13.629494997   9.258755887
Cu       3.689004129  15.323495902   9.259571879
Cu       5.533766433  13.626928546   9.263481179
Cu       0.002808604  -0.013560480  11.094643629
Cu       1.843804719   1.687822178  11.087972549
Cu       3.685385086  -0.013257782  11.094797847
Cu       5.530255862   1.682933557  11.086191505
Cu      -0.005362799   3.397507932  11.075214476
Cu       1.841879783   5.123170066  11.072241342
Cu       3.686400321   3.391652718  11.080219327
Cu       5.525846303   5.130233359  11.076510131
Cu      -0.005737874   6.845584019  11.086700048
Cu       1.839952968   8.551905467  11.096165482
Cu       3.684181787   6.852991245  11.096629193
Cu       5.527109604   8.547863229  11.098038524
Cu      -0.005071230  10.239270028  11.105687661
Cu       1.843580374  11.925922184  11.104765248
Cu       3.684170068  10.236452826  11.099185879
Cu       5.530582626  11.921952225  11.110843985
Cu       0.000176821  13.622766427  11.114392472
Cu       1.846147086  15.318305314  11.115091351
Cu       3.688085324  13.626951397  11.121380695
Cu       5.532473970  15.331387387  11.103850450
Cu      -0.004044997   1.686595865  12.921251104
Cu       1.847251919  -0.014084949  12.950403100
Cu       3.685073474   1.669012907  12.948104791
Cu       5.527747987  -0.014181575  12.949392581
Cu      -0.010102973   5.116978796  12.880599316
Cu       1.844173754   3.409347423  12.888211382
Cu       3.684717145   5.114581760  12.891097302
Cu       5.521454718   3.407657453  12.885798685
Cu      -0.012434836   8.543435412  12.940770068
Cu       1.840927565   6.824670548  12.898666831
Cu       3.672670337   8.568927852  12.975777673
Cu       5.517869878   6.849734849  12.924276833
Cu       0.000567073  11.923839865  12.966813498
Cu       1.838309510  10.246036794  12.981106064
Cu       3.679642718  11.917717331  12.971818532
Cu       5.511413782  10.234982514  12.974052855
Cu       0.004217919  15.327008723  12.946938067
Cu       1.848577314  13.598987108  12.970462729
Cu       3.684619614  15.347873629  12.970306918
Cu       5.526900660  13.625464337  12.934570996
Cu      -0.004836955  -0.001897112  14.776148864
Cu       1.833406956   1.732906104  14.697137515
Cu       3.689341418  -0.012431163  14.892114281
Cu       5.533730800   1.738873090  14.697625037
Cu      -0.004237727   3.428223377  14.689867668
Cu       1.837794915   5.112122658  14.699608142
Cu       3.677575116   3.418753887  14.713391996
Cu       5.517672570   5.100570022  14.698561146
Cu      -0.037534463   6.777429112  14.697043323
Cu       1.802086282   8.453208259  14.726737395
Cu       3.685597395   6.793896062  14.708697655
Cu       5.505669442   8.530848362  14.794894070
Cu      -0.032027856  10.212458160  14.784768434
Cu       1.779139869  11.945483064  14.884034130
Cu       3.673288089  10.297227050  14.856189998
Cu       5.552238165  11.959746981  14.786600300
Cu      -0.012981393  13.645795379  14.799184262
Cu       1.835576711  15.310179772  14.763075414
Cu       3.688751037  13.630428454  14.785095562
Cu       5.538928541  15.311971682  14.757876632
C        0.005871003   0.664045558  17.473350452
C        0.006891772   2.101325673  17.556729878
C        1.235546752  -0.024632488  17.400557650
C        1.235133037   2.811500944  17.576595683
C        2.459104894   0.665798077  17.374420941
C        2.463166615   2.100188586  17.479678835
C        3.695201444  -0.024199761  17.193900040
C        3.695922392   2.814439338  17.500851636
C        4.931466064   0.667754415  17.370726463
C        4.929385846   2.103025913  17.474914600
C        6.153971208  -0.024610419  17.395792005
C        6.158727909   2.814859528  17.571672738
C        0.012738067   4.959744020  17.647646687
C        0.017898156   6.391553784  17.592201530
C        1.238048823   4.241839286  17.622093530
C        1.246830685   7.109407772  17.522229389
C        2.466471988   4.958565268  17.598947184
C        2.468898194   6.388261830  17.568455502
C        3.697292071   4.242604979  17.576619009
C        3.701786675   7.097554838  17.527436055
C        4.929842039   4.957373547  17.611212185
C        4.933631093   6.386779524  17.592701258
C        6.160537013   4.244843115  17.626939501
C        6.164253041   7.100162312  17.548233828
C        0.016898899   9.237071623  17.306272217
C        1.242362036   8.542079865  17.326118882
C_h        2.490502914   9.237733214  17.132025858
C        3.715657419   8.520873454  17.377529468
C        4.935536255   9.215193007  17.322090210
C        6.169519874   8.534819733  17.415015331
H        1.234900179  -1.115149637  17.362287714
H        3.693966857  -1.111597169  17.284435003
H        6.154360492  -1.115042258  17.358005735
H        0.021361691  10.330643353  17.309034602
O        2.553935888  10.494752227  16.716436707
H        4.920772716  10.304172137  17.272141337
K_POINTS automatic
4 2 1  0 0 0
CELL_PARAMETERS angstrom
7.378073983 0.000000000 0.0000000000
0.000000000 17.038932 0.0000000000
0.000000000 0.000000000 25.00
