&control
    calculation = 'scf'
    prefix = 'graphene'
    pseudo_dir = '/home/549/hxw549/Short/pseudopotentials'
    outdir = './'
    restart_mode = 'from_scratch'
    etot_conv_thr = 1.d-6
    forc_conv_thr = 1.d-5
/
&system
    ibrav = 0 
    nat = 48
    ntyp = 2
    ecutwfc = 80
    ecutrho = 180
    occupations = 'smearing'
    smearing = 'gaussian'
    degauss = 0.1
    vdw_corr='grimme-d2'
    tot_charge=1
/
&electrons
    diagonalization = 'david'
    diago_thr_init = 1.d-4
    mixing_mode = 'plain'
    mixing_beta = 0.7
    conv_thr =  1.d-10
/
&ions
/
ATOMIC_SPECIES
C   12.0107 C.pbe-mt_gipaw.UPF
C_h 12.0107 C.star1s-pbe-mt_gipaw.UPF
ATOMIC_POSITIONS angstrom
C        0.000000000   0.709703163   5.000000000
C        0.000000000   2.130119304   5.000000000
C        1.229679120   0.000252380   5.000000000
C        1.229678987   2.839569792   5.000000000
C        2.459358164   0.709703100   5.000000000
C        2.459358000   2.130119258   5.000000000
C        3.689036991   0.000252338   5.000000000
C        3.689036991   2.839569506   5.000000000
C        4.918715818   0.709703100   5.000000000
C        4.918715982   2.130119258   5.000000000
C        6.148394863   0.000252380   5.000000000
C        6.148394996   2.839569792   5.000000000
C        0.000000000   4.969435863   5.000000000
C        0.000000000   6.389851914   5.000000000
C        1.229678888   4.259985626   5.000000000
C        1.229678744   7.099302473   5.000000000
C        2.459357689   4.969435739   5.000000000
C        2.459357701   6.389851836   5.000000000
C        3.689036991   4.259985419   5.000000000
C        3.689036991   7.099302463   5.000000000
C        4.918716293   4.969435739   5.000000000
C        4.918716281   6.389851836   5.000000000
C        6.148395095   4.259985626   5.000000000
C        6.148395239   7.099302473   5.000000000
C_h      0.000000000   9.229168860   5.000000000
C        0.000000000  10.649584714   5.000000000
C        1.229678687   8.519718547   5.000000000
C        1.229679083  11.359035264   5.000000000
C        2.459357772   9.229169097   5.000000000
C        2.459358018  10.649584967   5.000000000
C        3.689036991   8.519718700   5.000000000
C        3.689036991  11.359035590   5.000000000
C        4.918716210   9.229169097   5.000000000
C        4.918715964  10.649584967   5.000000000
C        6.148395296   8.519718547   5.000000000
C        6.148394900  11.359035264   5.000000000
C        0.000000000  13.488902093   5.000000000
C        0.000000000  14.909318018   5.000000000
C        1.229679281  12.779451651   5.000000000
C        1.229679223  15.618768316   5.000000000
C        2.459358276  13.488902096   5.000000000
C        2.459358164  14.909317887   5.000000000
C        3.689036991  12.779451693   5.000000000
C        3.689036991  15.618768303   5.000000000
C        4.918715706  13.488902096   5.000000000
C        4.918715818  14.909317887   5.000000000
C        6.148394702  12.779451651   5.000000000
C        6.148394760  15.618768316   5.000000000
K_POINTS automatic
2 2 1 0 0 0
CELL_PARAMETERS angstrom
7.378073983  0.000000000 0.0000000000
0 17.038932  0.0000000000
0.000000000 0.000000000 10.0000000000
