&control
    calculation = 'relax'
    prefix = 'gc'
    pseudo_dir = '/home/549/hxw549/Short/pseudopotentials/'
    outdir = './'
    restart_mode = 'from_scratch'
    etot_conv_thr = 1.d-6
    forc_conv_thr = 1.d-5
    
/

&system
    ibrav = 0
    nat = 150
    ntyp = 4
    ecutwfc = 80
    occupations = 'smearing'
    smearing = 'gaussian'
    degauss = 0.1
    vdw_corr='grimme-d2'
/

&electrons
    diagonalization = 'david'
    diago_thr_init = 1.d-4
    mixing_mode = 'local-TF'
    mixing_beta = 0.7
    conv_thr =  1.d-8
    	

/	

&ions
    
/


ATOMIC_SPECIES
Cu 63.546 Cu.pbe-n-van_ak.UPF
C   12.0107 C.pbe-mt_gipaw.UPF
O   15.9994 O.pbe-van_gipaw.UPF
H  1.007825032 H.pbe-van_ak.UPF


ATOMIC_POSITIONS angstrom
Cu      -0.000059541   0.001205728   7.362292852
Cu       1.844225529   1.703068003   7.359368345
Cu       3.688747616  -0.000623045   7.360196075
Cu       5.533555958   1.703141212   7.359936554
Cu      -0.000010065   3.406389218   7.358524358
Cu       1.845276200   5.111324146   7.358730532
Cu       3.688997493   3.407567546   7.360162991
Cu       5.533440456   5.111463137   7.359422698
Cu      -0.000172621   6.815301420   7.357847882
Cu       1.845519797   8.519028046   7.358982446
Cu       3.688938232   6.815143824   7.360017082
Cu       5.533109347   8.518890051   7.359645599
Cu      -0.000056368  10.223813837   7.358607436
Cu       1.844176775  11.927304143   7.360219785
Cu       3.689020630  10.222834902   7.361279760
Cu       5.533583204  11.927601732   7.360451381
Cu       0.000073411  13.629774348   7.362782171
Cu       1.843877938  15.335446314   7.362764542
Cu       3.688604915  13.631691908   7.360402769
Cu       5.533821711  15.334987633   7.360919980
Cu       0.000686170   1.703661737   9.194844730
Cu       1.843460294   0.002448783   9.196273298
Cu       3.688280314   1.696398109   9.185196355
Cu       5.534272073  -0.000671416   9.192611108
Cu       0.002184177   5.107535342   9.183638314
Cu       1.842904625   3.402529290   9.185255507
Cu       3.690018504   5.110741728   9.189747547
Cu       5.536053967   3.401684033   9.184236371
Cu       0.001929881   8.522720707   9.183081284
Cu       1.846682980   6.814690492   9.186805090
Cu       3.689996614   8.518525940   9.190534888
Cu       5.533656938   6.814905788   9.189327913
Cu       0.000665699  11.925937870   9.195334643
Cu       1.842619466  10.227419248   9.185328958
Cu       3.688300673  11.935597546   9.184734580
Cu       5.536430288  10.228439294   9.184281275
Cu       0.000352431  15.335210437   9.193103191
Cu       1.843337232  13.629298123   9.195818989
Cu       3.688282708  15.334981387   9.191525872
Cu       5.534365756  13.631665670   9.192924050
Cu       0.001369273  -0.002357325  11.034247007
Cu       1.841089326   1.707871034  11.042389742
Cu       3.687805379  -0.002737440  11.030539317
Cu       5.537937741   1.696795861  11.029363391
Cu       0.003877771   3.403021242  11.031928085
Cu       1.846811638   5.090220891  11.011484304
Cu       3.689228817   3.379876107  11.002913016
Cu       5.545409988   5.090704644  11.006722214
Cu       0.013716920   6.816150806  11.003170998
Cu       1.844583825   8.540448690  11.009672268
Cu       3.701278776   6.814329083  11.026404445
Cu       5.546650111   8.539455290  11.007004129
Cu       0.004857908  10.224666221  11.036031703
Cu       1.840186255  11.921470065  11.042983731
Cu       3.689125261  10.252725754  10.999159529
Cu       5.539240242  11.932341413  11.030379729
Cu       0.000863540  13.632238842  11.033570789
Cu       1.844193408  15.335222158  11.034499330
Cu       3.688282816  13.633546330  11.031834586
Cu       5.533710382  15.335165098  11.034026975
Cu       0.005862651   1.697193231  12.866391777
Cu       1.845949487  -0.003219547  12.874799820
Cu       3.688680441   1.695280182  12.862215892
Cu       5.534044210  -0.002517878  12.873526419
Cu       0.031078257   5.101897724  12.864214713
Cu       1.850264194   3.404014592  12.884335614
Cu       3.709403066   5.077553482  12.812366904
Cu       5.547367277   3.388066440  12.854244600
Cu       0.040806320   8.526686757  12.884451647
Cu       1.854078242   6.815429197  12.763943842
Cu       3.705127015   8.555960054  12.805047680
Cu       5.609939839   6.818021679  12.799432838
Cu       0.006839454  11.931192477  12.872209177
Cu       1.844354322  10.205622434  12.910195667
Cu       3.689341053  11.928049601  12.860611084
Cu       5.554974659  10.236573001  12.858987620
Cu       0.000593046  15.333244540  12.876566662
Cu       1.844471811  13.633241331  12.872119975
Cu       3.689635627  15.335957514  12.876718653
Cu       5.536041438  13.631707130  12.872964511
Cu       0.003327023   0.000956178  14.686356569
Cu       1.853271517   1.692526559  14.689013640
Cu       3.693372488   0.001458203  14.697804623
Cu       5.548113390   1.702619171  14.681769619
Cu       0.033251906   3.381386312  14.684217675
Cu       1.837980847   5.022995937  14.689866478
Cu       3.707323860   3.374615759  14.682562878
Cu       5.585867050   5.029425229  14.667017201
Cu      -0.075754634   6.801669568  14.702361585
Cu       1.872485716   8.524490528  14.735451901
Cu       3.979216560   6.827670409  14.541884441
Cu       5.606169319   8.601684900  14.682022401
Cu       0.061432619  10.235279849  14.709637130
Cu       1.853329571  11.940247848  14.686333646
Cu       3.697820322  10.235142057  14.674323359
Cu       5.550072477  11.920859338  14.682950494
Cu       0.001209417  13.631087622  14.697681960
Cu       1.847280615  15.332252321  14.693357945
Cu       3.695755850  13.623692075  14.683688429
Cu       5.534975180  15.334244407  14.692513656
C       -0.002157216   0.715627018  17.600144405
C        0.000072492   2.137074569  17.590777498
C        1.227557562   0.005560332  17.609180397
C        1.228119747   2.847601229  17.611582282
C        2.455812978   0.715288515  17.586891296
C        2.458340145   2.136906744  17.604477095
C        3.686745713   0.004222549  17.589076383
C        3.688352352   2.847849384  17.604716601
C        4.917965204   0.715725300  17.582862578
C        4.919091913   2.137647596  17.565846566
C        6.146077803   0.005289857  17.606023588
C        6.149111372   2.848228388  17.567131760
C        0.001716112   4.976563590  17.660778133
C        0.003025451   6.396697250  17.680671465
C        1.232574574   4.269543450  17.649505508
C        1.228239577   7.103381043  17.804016947
C        2.460031676   4.975650342  17.769389790
C        2.458933187   6.391958191  17.857258489
C        3.687307311   4.269248379  17.662043438
C        3.687045752   7.100797411  17.814386622
O        1.920727412   6.780275092  16.863007471
H        2.920727412   6.780275092  16.863007471
C        4.919775591   4.978395339  17.663471843
C        4.916135837   6.395790292  17.735564118
C        6.150954832   4.269487659  17.618689488
C        6.145793853   7.103867636  17.670469472
C        0.002004006   9.228020257  17.616848723
C        0.002101291  10.646224855  17.542753111
C        1.231388416   8.517062235  17.698285583
C        1.231773090  11.359233460  17.571136484
C        2.461721910   9.230231307  17.709521969
C        2.462240575  10.648661262  17.647512914
C        3.688373317   8.517555759  17.756829033
C        3.690147445  11.360079394  17.633193909
C        4.915164647   9.227223213  17.652110679
C        4.916511300  10.645718105  17.610838630
C        6.148524078   8.520980027  17.655247717
C        6.145716653  11.357016934  17.555322859
C       -0.001143186  13.490194593  17.578989576
C       -0.002580814  14.912762063  17.619147739
C        1.230865917  12.780267082  17.581958368
C        1.227832278  15.622397951  17.621266700
C        2.459251823  13.489513688  17.617338958
C        2.458370496  14.911632615  17.624127564
C        3.689423510  12.779930731  17.613680889
C        3.686826345  15.621467349  17.624448311
C        4.918000581  13.489389305  17.612479490
C        4.916532821  14.912286451  17.624565751
C        6.145801670  12.779110342  17.575439571
C        6.147330316  15.623320660  17.620142358


K_POINTS automatic
4 2 1  0 0 0

CELL_PARAMETERS angstrom
7.378073983 0.000000000 0.0000000000
0.000000000 17.038932 0.0000000000
0.000000000 0.000000000 25.00
