&control
    calculation = 'relax'
    prefix = 'gc'
    pseudo_dir = '/home/549/hxw549/Short/pseudopotentials/'
    outdir = './'
    restart_mode = 'from_scratch'
    etot_conv_thr = 1.d-6
    forc_conv_thr = 1.d-5
    
/

&system
    ibrav = 0
    nat = 150
    ntyp = 4
    ecutwfc = 80
    occupations = 'smearing'
    smearing = 'gaussian'
    degauss = 0.1
    vdw_corr='grimme-d2'
    starting_magnetization(3)=1
    nspin = 2
/

&electrons
    diagonalization = 'david'
    diago_thr_init = 1.d-4
    mixing_mode = 'local-TF'
    mixing_beta = 0.7
    conv_thr =  1.d-8
    	

/	

&ions
    
/


ATOMIC_SPECIES
Cu 63.546 Cu.pbe-n-van_ak.UPF
C   12.0107 C.pbe-mt_gipaw.UPF
O   15.9994 O.pbe-van_gipaw.UPF
H  1.007825032 H.pbe-van_ak.UPF


ATOMIC_POSITIONS angstrom
Cu      -0.000175766   0.001667315   7.364128588
Cu       1.844479086   1.705734990   7.364240765
Cu       3.688912376   0.001585538   7.364138615
Cu       5.533457486   1.705629701   7.364033065
Cu       0.000070584   3.408390253   7.363265639
Cu       1.844419765   5.111250857   7.360859197
Cu       3.689003059   3.408380043   7.362451895
Cu       5.533814997   5.111230873   7.360845165
Cu       0.000152738   6.814934662   7.360002183
Cu       1.844659074   8.518537014   7.361226710
Cu       3.689090839   6.814742590   7.359868538
Cu       5.533559869   8.518491487   7.361172677
Cu      -0.000056541  10.221444514   7.363450404
Cu       1.844506054  11.924119129   7.365302097
Cu       3.689079897  10.221566926   7.363773401
Cu       5.533369541  11.924627355   7.364872215
Cu       0.000081871  13.628630641   7.364871584
Cu       1.844183535  15.334880730   7.364249504
Cu       3.688613449  13.628727825   7.364650941
Cu       5.533510498  15.334529111   7.363865513
Cu       0.000181169   1.706491986   9.197337407
Cu       1.844630787   0.001445484   9.195495411
Cu       3.689314310   1.707425758   9.197475793
Cu       5.533555686   0.001438382   9.195398282
Cu       0.000610267   5.114029392   9.195930892
Cu       1.845008162   3.411288593   9.197633558
Cu       3.689459193   5.113351880   9.194931664
Cu       5.533859055   3.411195109   9.197153757
Cu       0.000502251   8.516090696   9.195281086
Cu       1.845078603   6.814773060   9.194308794
Cu       3.689573455   8.515703978   9.195272082
Cu       5.534100822   6.814748848   9.193924945
Cu       0.000187867  11.922626980   9.197883530
Cu       1.845114873  10.218259499   9.198060769
Cu       3.689213186  11.922708173   9.198789641
Cu       5.533709861  10.218401129   9.197672419
Cu      -0.000004659  15.334651262   9.194567674
Cu       1.844570410  13.628582468   9.196099381
Cu       3.688988068  15.334475741   9.194268475
Cu       5.533547460  13.628524977   9.196000599
Cu       0.000536609  -0.000515413  11.035806966
Cu       1.845972850   1.706387171  11.036974843
Cu       3.689576367  -0.000240807  11.034758079
Cu       5.533786087   1.707131883  11.037445242
Cu       0.000902707   3.413481664  11.038583994
Cu       1.846489222   5.117903238  11.041942057
Cu       3.690390099   3.415671249  11.041721175
Cu       5.534228353   5.117896357  11.041537752
Cu       0.001089694   6.816750081  11.042443351
Cu       1.846324403   8.512320637  11.042082012
Cu       3.690736421   6.814478999  11.042424947
Cu       5.534555842   8.511987446  11.042033409
Cu       0.001164342  10.214711863  11.040636220
Cu       1.845443074  11.921723721  11.038068390
Cu       3.690294230  10.212530249  11.042276567
Cu       5.534308787  11.921197815  11.038171070
Cu       0.000374272  13.629003152  11.035327298
Cu       1.844836050  15.334416885  11.035031762
Cu       3.689666350  13.630374909  11.035972317
Cu       5.534014440  15.334444575  11.034705517
Cu       0.001296801   1.704800363  12.869724850
Cu       1.846511380  -0.002036182  12.875112808
Cu       3.690663813   1.701906086  12.874062366
Cu       5.533926530  -0.002082047  12.874354931
Cu       0.001279045   5.117117646  12.882348189
Cu       1.850524833   3.412993389  12.875899966
Cu       3.691597407   5.122961867  12.897053474
Cu       5.530982087   3.414533556  12.878035587
Cu       0.001850779   8.512986784  12.893390335
Cu       1.849546296   6.816898161  12.896041586
Cu       3.691731506   8.505620499  12.896419441
Cu       5.532613590   6.816306881  12.898354765
Cu       0.001552603  11.923911714  12.874321811
Cu       1.845992534  10.213410296  12.880136596
Cu       3.691031315  11.923944842  12.869894586
Cu       5.536575382  10.212433810  12.880591732
Cu       0.001111439  15.332604701  12.876853272
Cu       1.844590034  13.630972789  12.873718148
Cu       3.690014177  15.336040558  12.877427551
Cu       5.535985898  13.631062872  12.873509149
Cu       0.001857850   0.001797306  14.686982263
Cu       1.844750248   1.702284942  14.685434991
Cu       3.690187653   0.000066012  14.701244138
Cu       5.536415909   1.702790464  14.684304257
Cu       0.002563381   3.407903578  14.675754427
Cu       1.861585064   5.107229675  14.704224727
Cu       3.689567621   3.392302883  14.699815605
Cu       5.519294617   5.106097233  14.710267067
Cu       0.001546629   6.802537913  14.705568568
Cu       1.846439954   8.521135390  14.719316889
Cu       3.691252365   6.823096828  14.763758687
Cu       5.536297697   8.522275648  14.721555553
Cu       0.003440447  10.227702112  14.700644672
Cu       1.844025202  11.927414015  14.683522397
Cu       3.691193584  10.227948573  14.685417708
Cu       5.538949519  11.926141675  14.682743560
Cu       0.001289378  13.629527917  14.698641498
Cu       1.846024317  15.332924897  14.694085750
Cu       3.691443578  13.625914510  14.685215023
Cu       5.535110419  15.333946047  14.693278597
C       -0.002323514   0.712057881  17.619740522
C       -0.001449459   2.130341832  17.606583452
C        1.227088314   0.003216086  17.623898055
C        1.226559553   2.839382905  17.580519550
C        2.455948978   0.712498005  17.606878421
C        2.456099256   2.130862482  17.581052651
C        3.686560486   0.001972293  17.600801755
C        3.687603910   2.845453981  17.564439144
C        4.917702928   0.712632947  17.598546885
C        4.918850288   2.131175693  17.576776510
C        6.145986008   0.003022562  17.618415740
C        6.149207928   2.839222575  17.579185974
C       -0.000079380   4.968527961  17.531477636
C       -0.000142085   6.388786583  17.494430828
C        1.226157454   4.257508270  17.541452182
C        1.231822133   7.096763659  17.539039283
C        2.454158264   4.973162246  17.546747554
C        2.441773223   6.381216808  17.586531952
C        3.688447291   4.259559479  17.562485184

C        3.689809492   7.098427792  18.590762059
O        3.701788840   7.084003469  19.15539238
H        4.401788840   7.084003469  19.85539238

C        4.923114024   4.972659701  17.542934123
C        4.935803643   6.381320281  17.578831069
C        6.151252068   4.257573473  17.540041499
C        6.146274162   7.096994620  17.535622665
C       -0.000551132   9.229305153  17.553473718
C       -0.001611831  10.654344655  17.545768971
C        1.229323363   8.522970715  17.557802807
C        1.228177890  11.365801750  17.566788496
C        2.463276537   9.237872551  17.575756898
C        2.458520624  10.658727228  17.572612196
C        3.688134795   8.546912402  17.622145787
C        3.686948500  11.366771253  17.595274704
C        4.912821631   9.237925958  17.577184868
C        4.915844341  10.658611660  17.571004216
C        6.147751899   8.523064878  17.557331233
C        6.145854862  11.365925515  17.561552026
C       -0.002600589  13.495164826  17.590405480
C       -0.002788758  14.914154429  17.614463347
C        1.228206975  12.785129117  17.594113863
C        1.226588075  15.623058948  17.619458530
C        2.456902849  13.493952581  17.616897377
C        2.457001279  14.913031065  17.621056181
C        3.686263900  12.785829008  17.612815092
C        3.686112791  15.621958814  17.622577021
C        4.915483831  13.494045800  17.614338891
C        4.915190305  14.913074888  17.618384305
C        6.144535337  12.785443338  17.590138094
C        6.145895168  15.622843339  17.616991955

K_POINTS automatic
4 2 1  0 0 0

CELL_PARAMETERS angstrom
7.378073983 0.000000000 0.0000000000
0.000000000 17.038932 0.0000000000
0.000000000 0.000000000 25.00
