&control
    calculation = 'scf'
    prefix = 'gc'
    pseudo_dir = '/home/549/hxw549/Short/pseudopotentials/'
    outdir = './'
    restart_mode = 'from_scratch'
    etot_conv_thr = 1.d-6
    forc_conv_thr = 1.d-5
    
/

&system
    ibrav = 0
    nat = 149
    ntyp = 4
    ecutwfc = 80
    occupations = 'smearing'
    smearing = 'gaussian'
    degauss = 0.1
    vdw_corr='grimme-d2'
    tot_charge=1
/

&electrons
    diagonalization = 'david'
    diago_thr_init = 1.d-4
    mixing_mode = 'local-TF'
    mixing_beta = 0.7
    conv_thr =  1.d-8
    	

/	

&ions
    
/


ATOMIC_SPECIES
Cu 63.546 Cu.pbe-n-van_ak.UPF
C_h 12.0107 C.star1s-pbe-mt_gipaw.UPF
C   12.0107 C.pbe-mt_gipaw.UPF
O   15.9994 O.pbe-van_gipaw.UPF



ATOMIC_POSITIONS angstrom
Cu      -0.000196973   0.002263411   7.366216375
Cu       1.844544855   1.706329232   7.365637983
Cu       3.688891381   0.001914010   7.365891897
Cu       5.533477995   1.706488112   7.365783542
Cu       0.000166016   3.408913115   7.364181330
Cu       1.844680023   5.111631232   7.361689766
Cu       3.689143938   3.409192568   7.363886399
Cu       5.533897872   5.111533185   7.361691093
Cu       0.000327280   6.814802195   7.360955945
Cu       1.844864004   8.517908206   7.362644065
Cu       3.689254152   6.814704989   7.360856112
Cu       5.533638795   8.517736592   7.362752279
Cu      -0.000022419  10.220348085   7.365275144
Cu       1.844576063  11.922567921   7.367577341
Cu       3.689221569  10.220062793   7.366107782
Cu       5.533330198  11.923419088   7.367015794
Cu       0.000253205  13.627586041   7.367177985
Cu       1.844064059  15.334949675   7.366673432
Cu       3.688366114  13.627978066   7.366765711
Cu       5.533525478  15.334157820   7.365627245
Cu       0.000599034   1.707355064   9.198826189
Cu       1.844679426   0.002397021   9.197340409
Cu       3.689394700   1.707341369   9.198008728
Cu       5.533751862   0.001219725   9.195807366
Cu       0.001197173   5.113901162   9.196260991
Cu       1.845280547   3.411270877   9.197854333
Cu       3.690023748   5.113763798   9.196216856
Cu       5.534428931   3.411588668   9.198086433
Cu       0.001157065   8.515216158   9.196649737
Cu       1.845710013   6.814536981   9.195479801
Cu       3.689905260   8.514330447   9.197819617
Cu       5.534581235   6.814285415   9.195303886
Cu       0.000537993  11.921155916   9.199712343
Cu       1.845324583  10.216700322   9.200128889
Cu       3.689277569  11.922133163   9.199686014
Cu       5.534211834  10.217368754   9.199178186
Cu       0.000238094  15.334285885   9.195477331
Cu       1.844575351  13.627500287   9.197566668
Cu       3.688856051  15.334179336   9.195156594
Cu       5.533719980  13.627920317   9.196947370
Cu       0.001567205  -0.001047814  11.035321399
Cu       1.846312826   1.708527784  11.039918303
Cu       3.689464905  -0.000754088  11.034427642
Cu       5.534908293   1.705587038  11.036063539
Cu       0.002839741   3.413893074  11.040094874
Cu       1.847441184   5.115999985  11.040817476
Cu       3.690810739   3.413264967  11.039412737
Cu       5.536828815   5.116381245  11.040863448
Cu       0.003412646   6.815282083  11.042496673
Cu       1.846912222   8.510401595  11.044657124
Cu       3.691981466   6.812899539  11.043917740
Cu       5.536982343   8.511958665  11.041759998
Cu       0.002819307  10.213048469  11.042620338
Cu       1.845493208  11.920450083  11.039718750
Cu       3.690595627  10.214197198  11.040475852
Cu       5.535508812  11.921079595  11.038143636
Cu       0.000890693  13.628413686  11.035491618
Cu       1.845151305  15.333668877  11.034873155
Cu       3.689960154  13.629571434  11.036064398
Cu       5.534394972  15.334004228  11.034457451
Cu       0.004716055   1.703401930  12.868437613
Cu       1.847586597  -0.003951166  12.874079687
Cu       3.690693876   1.701178645  12.871349700
Cu       5.534967276  -0.002899990  12.872500506
Cu       0.008719343   5.117033482  12.885945354
Cu       1.852027825   3.419943874  12.884507061
Cu       3.693997640   5.114569104  12.888984271
Cu       5.535613297   3.410853461  12.872958905
Cu       0.008039042   8.508904853  12.896026757
Cu       1.852068562   6.807802929  12.897629358
Cu       3.693926484   8.511108032  12.885463539
Cu       5.541376684   6.814309965  12.891055437
Cu       0.003510613  11.923687818  12.875088156
Cu       1.846083652  10.211355150  12.883460629
Cu       3.691784746  11.922660040  12.869355676
Cu       5.541040317  10.213097955  12.878157272
Cu       0.001808523  15.331822600  12.875953431
Cu       1.845492455  13.630552261  12.873131560
Cu       3.691051725  15.334588714  12.876153736
Cu       5.537011458  13.630293894  12.872701395
Cu       0.004255060   0.000018891  14.685150085
Cu       1.848263764   1.702917492  14.680638574
Cu       3.691550476  -0.001454182  14.697563769
Cu       5.539898828   1.700249570  14.679926255
Cu       0.005350648   3.407989831  14.673730932
Cu       1.876942089   5.109940576  14.744838067
Cu       3.699718825   3.390762594  14.693673416
Cu       5.529747270   5.105446131  14.699025343
Cu       0.016454183   6.797820941  14.717231805
Cu       1.855634101   8.510663727  14.720730251
Cu       3.703501696   6.821171944  14.719388065
Cu       5.544927910   8.518734117  14.708624597
Cu       0.009668145  10.225044967  14.701710683
Cu       1.847006218  11.927404415  14.683255618
Cu       3.693605863  10.224538705  14.683336386
Cu       5.540623215  11.923590085  14.680357553
Cu       0.002027590  13.629623035  14.697986798
Cu       1.848365202  15.331176786  14.692911225
Cu       3.693699509  13.624506530  14.684507922
Cu       5.535543050  15.333669397  14.691532641
C       -0.005594637   0.710607728  17.606217811
C       -0.007113039   2.128152101  17.584272182
C        1.224800757   0.002792887  17.613037723
C        1.220781849   2.833821539  17.553802163
C        2.453370565   0.710361709  17.588200291
C        2.452466724   2.129238290  17.551425829
C        3.684434744   0.001530538  17.594476170
C        3.684438920   2.839550201  17.533796214
C        4.915544062   0.711333118  17.590036280
C        4.915853909   2.129726547  17.558981625
C        6.143486600   0.002227196  17.614492659
C        6.144397239   2.838931198  17.567937591
C       -0.009386173   4.969207674  17.562655171
C       -0.007017413   6.394548846  17.533586100
C        1.221221723   4.253471766  17.548052411
C        1.198574699   7.115165393  17.592468497
C        2.446729939   4.945634289  17.560357556
C        2.429014083   6.377364466  17.843730988
C        3.679896901   4.258356417  17.551643715
C      3.704632453   7.115561848  17.867361404
O        3.054644160   6.715119657  19.175785419
C        4.916336515   4.974358812  17.564482071
C        4.935632583   6.385210475  17.597930230
C        6.145763199   4.260558789  17.557531939
C        6.139436097   7.104085900  17.546822753
C       -0.008057730   9.237466939  17.548881513
C       -0.005309676  10.658828114  17.540319093
C        1.220546640   8.524488204  17.583337938
C        1.225791434  11.368226350  17.566890173
C        2.458810059   9.240431880  17.612862514
C        2.454941023  10.659162890  17.592221246
C        3.688725076   8.555854012  17.643635937
C        3.683918063  11.368771580  17.603925777
C        4.910904632   9.244786635  17.581661741
C        4.913395819  10.664333371  17.573847419
C        6.143923926   8.528771033  17.556446236
C        6.142987294  11.370161820  17.555480374
C       -0.004309434  13.496944454  17.583281339
C       -0.004505934  14.915030012  17.613620426
C        1.226582522  12.786684076  17.587667221
C        1.224762481  15.623384029  17.618836753
C        2.455170254  13.495545076  17.620810601
C        2.455394258  14.913895553  17.626574694
C        3.684071873  12.787455574  17.618041427
C        3.684499812  15.622198165  17.627916140
C        4.913552069  13.495405863  17.614905357
C        4.913417489  14.913710743  17.621452935
C_h        6.142676777  12.788081224  17.582175333
C        6.143988489  15.623015254  17.616347215


K_POINTS automatic
4 2 1  0 0 0

CELL_PARAMETERS angstrom
7.378073983 0.000000000 0.0000000000
0.000000000 17.038932 0.0000000000
0.000000000 0.000000000 25.00
