&control
    calculation = 'relax'
    prefix = 'graphene'
    pseudo_dir = '/home/549/hxw549/Short/pseudopotentials'
    outdir = './'
    restart_mode = 'from_scratch'
    etot_conv_thr = 1.d-6
    forc_conv_thr = 1.d-5
/
&system
    ibrav = 0 
    nat = 49
    ntyp = 2
    ecutwfc = 80
    ecutrho = 180
    occupations = 'smearing'
    smearing = 'gaussian'
    degauss = 0.1
    vdw_corr='grimme-d2'
/
&electrons
    diagonalization = 'david'
    diago_thr_init = 1.d-4
    mixing_mode = 'plain'
    mixing_beta = 0.7
    conv_thr =  1.d-10
/	
&ions
/
ATOMIC_SPECIES
C   12.0107 C.pbe-mt_gipaw.UPF
O   15.9994 O.pbe-van_gipaw.UPF
ATOMIC_POSITIONS angstrom
C	0	0.709999628	5
C	0	2.129822365	5
C	1.229678997	-4.42842E-05	5
C	1.229678997	2.839866294	5
C	2.459357994	0.709999628	5
C	2.459357994	2.129822365	5
C	3.689036991	-4.42842E-05	5
C	3.689036991	2.839866294	5
C	4.918715988	0.709999628	5
C	4.918715988	2.129822365	5
C	6.148394986	-4.42842E-05	5
C	6.148394986	2.839866294	5
C	0	4.969732628	5
C	0	6.389555365	5
C	1.229678997	4.259688716	5
C	1.229678997	7.099599294	5
C	2.459357994	4.969732628	5
C	2.459357994	6.389555365	5
C	3.689036991	4.259688716	5
C	3.689036991	7.099599294	5
C	4.918715988	4.969732628	5
C	4.918715988	6.389555365	5
C	6.148394986	4.259688716	5
C	6.148394986	7.099599294	5
O       3.7     8             6.5
C	0	9.229465628	5
C	0	10.64928836	5
C	1.229678997	8.519421716	5
C	1.229678997	11.35933229	5
C	2.459357994	9.229465628	5
C	2.459357994	10.64928836	5
C	3.689036991	8.519421716	5
C	3.689036991	11.35933229	5
C	4.918715988	9.229465628	5
C	4.918715988	10.64928836	5
C	6.148394986	8.519421716	5
C	6.148394986	11.35933229	5
C	0	13.48919863	5
C	0	14.90902136	5
C	1.229678997	12.77915472	5
C	1.229678997	15.61906529	5
C	2.459357994	13.48919863	5
C	2.459357994	14.90902136	5
C	3.689036991	12.77915472	5
C	3.689036991	15.61906529	5
C	4.918715988	13.48919863	5
C	4.918715988	14.90902136	5
C	6.148394986	12.77915472	5
C	6.148394986	15.61906529	5
K_POINTS automatic
2 2 1 0 0 0
CELL_PARAMETERS angstrom
7.378073983  0.000000000 0.0000000000
0 17.038932  0.0000000000
0.000000000 0.000000000 10.0000000000
