&control
    calculation = 'scf'
    prefix = 'gc'
    pseudo_dir = '/home/549/hxw549/Short/pseudopotentials/'
    outdir = './'
    restart_mode = 'from_scratch'
    etot_conv_thr = 1.d-6
    forc_conv_thr = 1.d-5
    
/

&system
    ibrav = 0
    nat = 150
    ntyp = 5
    ecutwfc = 80
    occupations = 'smearing'
    smearing = 'gaussian'
    degauss = 0.1
    vdw_corr='grimme-d2'
    tot_charge=1
/

&electrons
    diagonalization = 'david'
    diago_thr_init = 1.d-4
    mixing_mode = 'local-TF'
    mixing_beta = 0.7
    conv_thr =  1.d-8
    	

/	

&ions
    
/


ATOMIC_SPECIES
Cu 63.546 Cu.pbe-n-van_ak.UPF
C_h 12.0107 C.star1s-pbe-mt_gipaw.UPF
C   12.0107 C.pbe-mt_gipaw.UPF
O   15.9994 O.pbe-van_gipaw.UPF
H  1.007825032 H.pbe-van_ak.UPF


ATOMIC_POSITIONS angstrom
Cu       0.000204861  -0.002042013   7.358060943
Cu       1.844676251   1.697393736   7.352089072
Cu       3.688578995  -0.005918084   7.354142930
Cu       5.533510013   1.697743481   7.353209293
Cu       0.000271685   3.402481682   7.352007072
Cu       1.845666469   5.110432404   7.355435099
Cu       3.689572270   3.404386986   7.354580880
Cu       5.534096296   5.110111058   7.355414792
Cu       0.001340643   6.815132147   7.355698725
Cu       1.845893993   8.519756414   7.355488143
Cu       3.689774851   6.814988778   7.356988024
Cu       5.533813927   8.520113710   7.355577513
Cu       0.000188539  10.228032178   7.351693703
Cu       1.844652972  11.933204189   7.352748162
Cu       3.689667817  10.226078398   7.355588827
Cu       5.533569950  11.932905276   7.353926536
Cu       0.000434697  13.632034207   7.359261624
Cu       1.842804253  15.334328903   7.360843677
Cu       3.688360518  13.636382642   7.354411409
Cu       5.534914376  15.334373437   7.356974736
Cu       0.000901592   1.698035236   9.188062781
Cu       1.843898794  -0.002489802   9.191103195
Cu       3.689597405   1.694408903   9.182567509
Cu       5.534479835  -0.005962749   9.187748905
Cu       0.003364449   5.104920040   9.181568730
Cu       1.846439401   3.397074425   9.179535040
Cu       3.692939942   5.106211720   9.184973986
Cu       5.535469697   3.398662796   9.181513114
Cu       0.003575008   8.526377072   9.181101731
Cu       1.848996648   6.815540866   9.187475683
Cu       3.692723279   8.523719622   9.185825955
Cu       5.538136417   6.815270970   9.185401581
Cu       0.001393450  11.930412834   9.190311114
Cu       1.846524401  10.232909452   9.180246991
Cu       3.689388475  11.935950573   9.184238225
Cu       5.535561814  10.231809058   9.181963328
Cu       0.000956801  15.334027119   9.191078982
Cu       1.843660352  13.630542800   9.194421034
Cu       3.688103587  15.333722922   9.190571179
Cu       5.534855681  13.634910502   9.189421918
Cu       0.002005268  -0.008334021  11.031198313
Cu       1.846348554   1.699273051  11.031902445
Cu       3.689460509  -0.005089469  11.029341239
Cu       5.537869001   1.690563495  11.021575282
Cu       0.007100889   3.399659361  11.025136072
Cu       1.854954515   5.096927506  11.013126236
Cu       3.695083686   3.392987983  11.018195006
Cu       5.545693028   5.100642092  11.017517260
Cu       0.014252996   6.816744807  11.013789438
Cu       1.854937123   8.532340154  11.017151924
Cu       3.705004193   6.814049572  11.019311330
Cu       5.546921289   8.530737744  11.016975011
Cu       0.008698248  10.227382100  11.030404301
Cu       1.845748991  11.923918227  11.039396308
Cu       3.695118257  10.235579893  11.019085951
Cu       5.539611659  11.935448153  11.025569949
Cu       0.002798290  13.634141214  11.033389333
Cu       1.846238940  15.334249043  11.032852350
Cu       3.689230675  13.632520679  11.032234400
Cu       5.533449326  15.333133801  11.033651812
Cu       0.010193251   1.691740786  12.862111572
Cu       1.850158928  -0.007488141  12.873432142
Cu       3.694567265   1.693851749  12.864895133
Cu       5.535969537  -0.005116477  12.871771025
Cu       0.033542687   5.104494919  12.864930140
Cu       1.859378697   3.413421373  12.882328960
Cu       3.705750180   5.089801064  12.842468636
Cu       5.546755184   3.390371980  12.846211122
Cu       0.034685177   8.520895513  12.874554792
Cu       1.867052813   6.808514071  12.782527227
Cu       3.711205082   8.535248501  12.837768286
Cu       5.579206228   6.816652299  12.836998849
Cu       0.013756911  11.931264202  12.873866289
Cu       1.858723397  10.210383935  12.892521405
Cu       3.695889067  11.927392070  12.864649192
Cu       5.555263375  10.232156367  12.854008642
Cu       0.001693336  15.332193178  12.877352740
Cu       1.848848663  13.635866052  12.871733220
Cu       3.693085621  15.334969386  12.875657378
Cu       5.538957796  13.629774940  12.873668693
Cu       0.005409189   0.000385947  14.687010538
Cu       1.863697682   1.690566675  14.685629716
Cu       3.698238564  -0.003849804  14.698103670
Cu       5.537741573   1.702012778  14.678179461
Cu       0.031051213   3.381514468  14.678901336
Cu       1.869041623   5.061275998  14.696967232
Cu       3.698692168   3.393260579  14.687567844
Cu       5.566871545   5.049541041  14.673889633
Cu      -0.097977480   6.804774040  14.681317586
Cu       1.871571897   8.581024916  14.661380232
Cu       3.875951287   6.811087400  14.561143474
Cu       5.573667262   8.576965807  14.687903824
Cu       0.048487516  10.240905002  14.708533690
Cu       1.863951224  11.945262560  14.687414799
Cu       3.700181175  10.230582617  14.682437295
Cu       5.550077782  11.915278643  14.681713150
Cu       0.002746164  13.631287066  14.699579128
Cu       1.851654971  15.331375526  14.694286221
Cu       3.705174278  13.626073397  14.683115932
Cu       5.538294971  15.334383576  14.691661259
C        0.003418252   0.715071606  17.591749858
C        0.005084107   2.136074132  17.586733106
C        1.229618981   0.002164297  17.609750156
C        1.234556209   2.841125652  17.635926355
C        2.460071794   0.711255133  17.587579784
C        2.461930578   2.134637686  17.590679463
C        3.690909088   0.000457158  17.589679136
C        3.693361405   2.846359227  17.605860785
C        4.919865957   0.716390222  17.575386239
C        4.920282212   2.137432294  17.555232450
C        6.149512106   0.005794328  17.599824993
C        6.152565092   2.844722720  17.575966061
C        0.005228562   4.967002368  17.738692916
C        0.005078514   6.386478173  17.805194365
C        1.236692230   4.254373465  17.793808165
C        1.220760973   7.098355066  18.040213076
C        2.465019952   4.960082598  17.945651435
C        2.453844317   6.389050076  18.091444705
C        3.696173974   4.261090582  17.772197523
C_h      3.701991581   7.100084585  17.991455218
O        2.059447133   6.832220736  15.545870742
H        2.651029982   6.884532852  16.358872174
C        4.925853117   4.971945031  17.732921681
C        4.926402070   6.385658666  17.835492264
C        6.154260387   4.266522201  17.628148511
C        6.150166435   7.095666094  17.738418767
C        0.002242193   9.220484069  17.662523465
C        0.001308549  10.642719425  17.582371831
C        1.229930788   8.514558329  17.837439598
C        1.232386589  11.353982636  17.589077685
C        2.464126419   9.228636873  17.802493262
C        2.460298107  10.642857993  17.663199974
C        3.700036258   8.523493467  17.864976780
C        3.688581325  11.355321540  17.622642953
C        4.922748115   9.221689513  17.681100110
C        4.916815179  10.642304448  17.601337277
C        6.152667432   8.510554184  17.687384158
C        6.146789949  11.350059026  17.559296877
C       -0.001634475  13.490266086  17.571689306
C       -0.000869926  14.911551827  17.606385984
C        1.230276957  12.777901879  17.578762968
C        1.228197199  15.621776468  17.612844920
C        2.458336607  13.490948663  17.614959005
C        2.459612260  14.911608614  17.617431489
C        3.686502824  12.778551965  17.612504427
C        3.689591225  15.620582028  17.618993417
C        4.918099396  13.488019469  17.606713136
C        4.917913372  14.910441531  17.614321512
C        6.146232039  12.773148977  17.569947516
C        6.148974381  15.622767839  17.609387661



K_POINTS automatic
4 2 1  0 0 0

CELL_PARAMETERS angstrom
7.378073983 0.000000000 0.0000000000
0.000000000 17.038932 0.0000000000
0.000000000 0.000000000 25.00
