&control
    calculation = 'scf'
    prefix = 'gc'
    pseudo_dir = '/home/549/hxw549/Short/pseudopotentials/'
    outdir = './'
    restart_mode = 'from_scratch'
    etot_conv_thr = 1.d-6
    forc_conv_thr = 1.d-5
/
&system
    ibrav = 0
    nat = 152
    ntyp = 5
    ecutwfc = 80
    occupations = 'smearing'
    smearing = 'gaussian'
    degauss = 0.1
    vdw_corr='xdm_a2'
    tot_charge=1
/
&electrons
    diagonalization = 'david'
    diago_thr_init = 1.d-4
    mixing_mode = 'local-TF'
    mixing_beta = 0.7
    conv_thr =  1.d-8
/	
&ions
/
ATOMIC_SPECIES
Cu 63.546 Cu.pbe-n-van_ak.UPF
C_h 12.0107 C.star1s-pbe-mt_gipaw.UPF
C   12.0107 C.pbe-mt_gipaw.UPF
H  1.007825032 H.pbe-van_ak.UPF
O   15.9994 O.pbe-van_gipaw.UPF
ATOMIC_POSITIONS angstrom
Cu      -0.000226880  -0.001740458   7.241682523
Cu       1.843966984   1.703714356   7.242405864
Cu       3.688669093  -0.002520732   7.241218458
Cu       5.533506459   1.703441317   7.242228575
Cu      -0.000267301   3.408212556   7.242843502
Cu       1.843904982   5.111847137   7.242313683
Cu       3.688714728   3.407851900   7.243064601
Cu       5.533589502   5.111853948   7.242190967
Cu      -0.000302741   6.815268316   7.241301877
Cu       1.844236288   8.518788403   7.242149966
Cu       3.688750286   6.815738910   7.241920614
Cu       5.533243588   8.518895387   7.242080924
Cu      -0.000315700  10.221026250   7.243811443
Cu       1.844395037  11.922826763   7.245085326
Cu       3.688753722  10.221290608   7.244353617
Cu       5.533086193  11.922755746   7.245269121
Cu      -0.000290205  13.625087977   7.243948097
Cu       1.844165884  15.330081678   7.242116964
Cu       3.688743125  13.625420181   7.244288412
Cu       5.533324172  15.330303591   7.242141535
Cu      -0.000292064   1.706409169   9.077458256
Cu       1.844131485  -0.002948855   9.073117498
Cu       3.688725252   1.705748166   9.075756079
Cu       5.533343547  -0.002746453   9.073430115
Cu      -0.000262808   5.116786615   9.079203270
Cu       1.843436075   3.412573933   9.078807402
Cu       3.688699053   5.115139568   9.075763686
Cu       5.534043863   3.412258169   9.078386016
Cu      -0.000239911   8.518301107   9.078859459
Cu       1.843191152   6.817708153   9.076270983
Cu       3.688678846   8.517223413   9.077728397
Cu       5.534290152   6.817727809   9.076180846
Cu      -0.000257907  11.916799414   9.084571321
Cu       1.843936478  10.216830896   9.082744291
Cu       3.688701148  11.917138101   9.084857264
Cu       5.533541465  10.216668720   9.083045117
Cu      -0.000288558  15.326129193   9.074303842
Cu       1.843951896  13.620681397   9.080780184
Cu       3.688734339  15.328839622   9.074676765
Cu       5.533531550  13.620923481   9.080481179
Cu      -0.000482819  -0.005384999  10.939454238
Cu       1.844717771   1.706138853  10.941762947
Cu       3.688874402  -0.004570848  10.941604139
Cu       5.532669102   1.706785662  10.942282995
Cu      -0.000278804   3.419689791  10.946030507
Cu       1.844254964   5.125806872  10.950933498
Cu       3.688601570   3.420099807  10.947667186
Cu       5.533120620   5.125182142  10.950320235
Cu      -0.000328590   6.820225676  10.953768053
Cu       1.845660217   8.509775956  10.955399859
Cu       3.688716213   6.818799086  10.949943857
Cu       5.531799512   8.509236120  10.955389242
Cu      -0.000259177  10.205608393  10.960548650
Cu       1.842276813  11.909105121  10.955869687
Cu       3.688638254  10.202905790  10.955903738
Cu       5.535126119  11.909923794  10.955021244
Cu      -0.000092178  13.618230914  10.953101216
Cu       1.844018096  15.326925617  10.944213781
Cu       3.688486284  13.620707229  10.946495891
Cu       5.533425814  15.326620090  10.944189025
Cu      -0.000713400   1.714516299  12.821632112
Cu       1.846168305  -0.000651262  12.824031205
Cu       3.688773189   1.707877545  12.824650925
Cu       5.531116852  -0.000999129  12.823999869
Cu      -0.000101351   5.110597071  12.833633316
Cu       1.841587337   3.415659910  12.826321671
Cu       3.688126895   5.116027243  12.840935082
Cu       5.535317533   3.416737910  12.827297264
Cu      -0.001134142   8.505468810  12.834145162
Cu       1.849349834   6.812510665  12.846550312
Cu       3.689587043   8.511558005  12.852780523
Cu       5.527915048   6.810679124  12.846894734
Cu      -0.000004917  11.911440409  12.841534255
Cu       1.847385322  10.209665506  12.837849835
Cu       3.688117971  11.916023713  12.825191202
Cu       5.529805871  10.211095841  12.836140332
Cu      -0.000343588  15.332949353  12.831855377
Cu       1.839817213  13.619718289  12.831821480
Cu       3.688615772  15.325538088  12.830148084
Cu       5.537410817  13.619441295  12.831368200
Cu      -0.000487185   0.008309201  14.652599004
Cu       1.836113894   1.712084190  14.647321464
Cu       3.688483351   0.010436448  14.660851855
Cu       5.540471245   1.712474574  14.647386335
Cu       0.000000763   3.400889690  14.678796185
Cu       1.826963813   5.101006136  14.675537618
Cu       3.687148468   3.410192460  14.660827843
Cu       5.550015773   5.100338701  14.678413652
Cu      -0.000714864   6.815027664  14.672497464
Cu       1.842264181   8.521134086  14.681168363
Cu       3.688974159   6.801805702  14.689661513
Cu       5.535122107   8.521173452  14.679297719
Cu      -0.001035847  10.215331715  14.671583396
Cu       1.837404196  11.916671066  14.663149301
Cu       3.689078906  10.229995462  14.670346723
Cu       5.539384030  11.916894239  14.662182949
Cu      -0.000757696  13.622999235  14.671158213
Cu       1.846021891  15.331505018  14.656782466
Cu       3.688632853  13.611924305  14.654164156
Cu       5.531087792  15.331439632  14.656820419
C        0.002118647   0.727685768  17.779860800
C       -0.000498168   2.148332197  17.804565627
C        1.230555662   0.015949902  17.757799465
C        1.227644875   2.859718624  17.773621946
C        2.458248818   0.726815393  17.757077819
C        2.455092219   2.146694736  17.751926383
C        3.690160507   0.017900113  17.751120591
C        3.686839714   2.857657435  17.741230099
C        4.922294178   0.725861582  17.751896899
C        4.920036215   2.145796623  17.737028322
C        6.151591792   0.016336514  17.755856028
C        6.148004681   2.856880876  17.759247628
C       -0.003762652   4.986218778  17.754585889
C        0.000551598   6.402742526  17.735363360
C        1.223094259   4.278506825  17.743297226
C        1.235246774   7.108855128  17.806351306
C        2.455810809   4.991907345  17.792179797
C        2.440739566   6.393479916  17.914579693
C        3.685429459   4.272227730  17.786957482
C_h        3.695320592   7.110641382  18.349410248
C        4.916072675   4.990096266  17.775524389
C        4.938465858   6.391175865  17.909391595
C        6.146875255   4.275876511  17.733619884
C        6.143407160   7.107482332  17.806768342
C       -0.002830274   9.240031521  17.808913085
C       -0.001034106  10.665593211  17.773518193
C        1.224684931   8.533602931  17.815667781
C        1.231891283  11.369100792  17.761921680
C        2.465687697   9.236353488  17.809173329
C        2.461756621  10.657303761  17.747297944
C        3.687537765   8.551503540  17.927706739
C        3.688879658  11.368844239  17.746265663
C        4.908146946   9.238572452  17.817560609
C        4.914710644  10.661010405  17.747575339
C        6.147269906   8.532777995  17.831928303
C        6.146213284  11.371951838  17.765634380
C        0.002741541  13.499689623  17.757355709
C        0.002235517  14.922333004  17.723502283
C        1.235115288  12.790640043  17.770530100
C        1.230324414  15.632402680  17.729755745
C        2.461906214  13.502049090  17.749022397
C        2.462456170  14.924133303  17.739711030
C        3.690258987  12.790931375  17.740785557
C        3.690372194  15.635420817  17.749952077
C        4.919814247  13.502885099  17.752048958
C        4.918456014  14.924902806  17.741559330
C        6.147112561  12.793380716  17.775078783
C        6.151638490  15.632482783  17.731102117
C        3.599707909   7.128730282  19.939813129
O        2.880768707   7.899149337  20.568288751
O        4.367146920   6.156475641  20.506308288
H        4.224839859   6.196914055  21.483674067
K_POINTS automatic
4 2 1  0 0 0
CELL_PARAMETERS angstrom
7.378073983 0.000000000 0.0000000000
0.000000000 17.038932 0.0000000000
0.000000000 0.000000000 25.00
