&control
    calculation = 'relax'
    prefix = 'copper'
    pseudo_dir = '/home/549/hxw549/Short/pseudopotentials/'
    outdir = './'
    restart_mode = 'from_scratch'
    etot_conv_thr = 1.d-6
    forc_conv_thr = 1.d-5

/

&system
    ibrav = 0
    nat = 120
    ntyp = 1
    ecutwfc = 40
    ecutrho = 180
    occupations = 'smearing'
    smearing = 'gaussian'
    degauss = 0.1
    vdw_corr='grimme-d2'
/

&electrons
    diagonalization = 'david'
    diago_thr_init = 1.d-4
    mixing_mode = 'plain'
    mixing_beta = 0.7
    conv_thr =  1.d-8
    	

/	

&ions
    
/


ATOMIC_SPECIES
Cu 63.546 Cu.pbe-n-van_ak.UPF

ATOMIC_POSITIONS angstrom
Cu	0	0	8.89526734
Cu	4.86478226	0	8.89526734
Cu	9.72956452	0	8.89526734
Cu	0	2.736440021	8.89526734
Cu	4.86478226	2.736440021	8.89526734
Cu	9.72956452	2.736440021	8.89526734
Cu	0	5.472880043	8.89526734
Cu	4.86478226	5.472880043	8.89526734
Cu	9.72956452	5.472880043	8.89526734
Cu	0	8.209320064	8.89526734
Cu	4.86478226	8.209320064	8.89526734
Cu	9.72956452	8.209320064	8.89526734
Cu	2.43239113	1.368220011	8.89526734
Cu	7.29717339	1.368220011	8.89526734
Cu	12.16195565	1.368220011	8.89526734
Cu	2.43239113	4.104660032	8.89526734
Cu	7.29717339	4.104660032	8.89526734
Cu	12.16195565	4.104660032	8.89526734
Cu	2.43239113	6.841100053	8.89526734
Cu	7.29717339	6.841100053	8.89526734
Cu	12.16195565	6.841100053	8.89526734
Cu	2.43239113	9.577540074	8.89526734
Cu	7.29717339	9.577540074	8.89526734
Cu	12.16195565	9.577540074	8.89526734
Cu	2.43239113	0	10.67175470
Cu	7.29717339	0	10.67175470
Cu	12.16195565	0	10.67175470
Cu	2.43239113	2.736440021	10.67175470
Cu	7.29717339	2.736440021	10.67175470
Cu	12.16195565	2.736440021	10.67175470
Cu	2.43239113	5.472880043	10.67175470
Cu	7.29717339	5.472880043	10.67175470
Cu	12.16195565	5.472880043	10.67175470
Cu	2.43239113	8.209320064	10.67175470
Cu	7.29717339	8.209320064	10.67175470
Cu	12.16195565	8.209320064	10.67175470
Cu	0	1.368220011	10.67175470
Cu	4.86478226	1.368220011	10.67175470
Cu	9.72956452	1.368220011	10.67175470
Cu	0	4.104660032	10.67175470
Cu	4.86478226	4.104660032	10.67175470
Cu	9.72956452	4.104660032	10.67175470
Cu	0	6.841100053	10.67175470
Cu	4.86478226	6.841100053	10.67175470
Cu	9.72956452	6.841100053	10.67175470
Cu	0	9.577540074	10.67175470
Cu	4.86478226	9.577540074	10.67175470
Cu	9.72956452	9.577540074	10.67175470
Cu	0	0	12.5
Cu	4.86478226	0	12.5
Cu	9.72956452	0	12.5
Cu	0	2.736440021	12.5
Cu	4.86478226	2.736440021	12.5
Cu	9.72956452	2.736440021	12.5
Cu	0	5.472880043	12.5
Cu	4.86478226	5.472880043	12.5
Cu	9.72956452	5.472880043	12.5
Cu	0	8.209320064	12.5
Cu	4.86478226	8.209320064	12.5
Cu	9.72956452	8.209320064	12.5
Cu	2.43239113	1.368220011	12.5
Cu	7.29717339	1.368220011	12.5
Cu	12.16195565	1.368220011	12.5
Cu	2.43239113	4.104660032	12.5
Cu	7.29717339	4.104660032	12.5
Cu	12.16195565	4.104660032	12.5
Cu	2.43239113	6.841100053	12.5
Cu	7.29717339	6.841100053	12.5
Cu	12.16195565	6.841100053	12.5
Cu	2.43239113	9.577540074	12.5
Cu	7.29717339	9.577540074	12.5
Cu	12.16195565	9.577540074	12.5
Cu	2.43239113	0	14.32824657
Cu	7.29717339	0	14.32824657
Cu	12.16195565	0	14.32824657
Cu	2.43239113	2.736440021	14.32824657
Cu	7.29717339	2.736440021	14.32824657
Cu	12.16195565	2.736440021	14.32824657
Cu	2.43239113	5.472880043	14.32824657
Cu	7.29717339	5.472880043	14.32824657
Cu	12.16195565	5.472880043	14.32824657
Cu	2.43239113	8.209320064	14.32824657
Cu	7.29717339	8.209320064	14.32824657
Cu	12.16195565	8.209320064	14.32824657
Cu	0	1.368220011	14.32824657
Cu	4.86478226	1.368220011	14.32824657
Cu	9.72956452	1.368220011	14.32824657
Cu	0	4.104660032	14.32824657
Cu	4.86478226	4.104660032	14.32824657
Cu	9.72956452	4.104660032	14.32824657
Cu	0	6.841100053	14.32824657
Cu	4.86478226	6.841100053	14.32824657
Cu	9.72956452	6.841100053	14.32824657
Cu	0	9.577540074	14.32824657
Cu	4.86478226	9.577540074	14.32824657
Cu	9.72956452	9.577540074	14.32824657
Cu	0	0	16.10474732
Cu	4.86478226	0	16.10474732
Cu	9.72956452	0	16.10474732
Cu	0	2.736440021	16.10474732
Cu	4.86478226	2.736440021	16.10474732
Cu	9.72956452	2.736440021	16.10474732
Cu	0	5.472880043	16.10474732
Cu	4.86478226	5.472880043	16.10474732
Cu	9.72956452	5.472880043	16.10474732
Cu	0	8.209320064	16.10474732
Cu	4.86478226	8.209320064	16.10474732
Cu	9.72956452	8.209320064	16.10474732
Cu	2.43239113	1.368220011	16.10474732
Cu	7.29717339	1.368220011	16.10474732
Cu	12.16195565	1.368220011	16.10474732
Cu	2.43239113	4.104660032	16.10474732
Cu	7.29717339	4.104660032	16.10474732
Cu	12.16195565	4.104660032	16.10474732
Cu	2.43239113	6.841100053	16.10474732
Cu	7.29717339	6.841100053	16.10474732
Cu	12.16195565	6.841100053	16.10474732
Cu	2.43239113	9.577540074	16.10474732
Cu	7.29717339	9.577540074	16.10474732
Cu	12.16195565	9.577540074	16.10474732





K_POINTS automatic
2 2 1 0 0 0

CELL_PARAMETERS angstrom
14.59434678 0.000000000 0.0000000000
0.000000000 10.94576009 0.0000000000
0.000000000 0.000000000 25.000000000
