&control
    calculation = 'relax'
    prefix = 'gc'
    pseudo_dir = '/home/549/hxw549/Short/pseudopotentials/'
    outdir = './'
    restart_mode = 'from_scratch'
    etot_conv_thr = 1.d-6
    forc_conv_thr = 1.d-5
    
/

&system
    ibrav = 0
    nat = 151
    ntyp = 3
    ecutwfc = 80
    occupations = 'smearing'
    smearing = 'gaussian'
    degauss = 0.1
    vdw_corr='grimme-d2'
/

&electrons
    diagonalization = 'david'
    diago_thr_init = 1.d-4
    mixing_mode = 'local-TF'
    mixing_beta = 0.7
    conv_thr =  1.d-8
    	

/	

&ions
    
/


ATOMIC_SPECIES
Cu 63.546 Cu.pbe-n-van_ak.UPF
C   12.0107 C.pbe-mt_gipaw.UPF
H  1.007825032 H.pbe-van_ak.UPF


ATOMIC_POSITIONS angstrom
Cu       0.003681523  -0.017714390   7.307052214
Cu       1.852346906   1.675983394   7.318555955
Cu       3.687116577  -0.029697457   7.315843529
Cu       5.529985616   1.673766050   7.319090792
Cu       0.002121422   3.383644019   7.330705660
Cu       1.851810326   5.097961862   7.341408596
Cu       3.696763404   3.383615929   7.325364183
Cu       5.542982110   5.098165254   7.341976066
Cu       0.010673008   6.812326216   7.347192473
Cu       1.849868736   8.530093060   7.335591789
Cu       3.696414983   6.811766423   7.350284635
Cu       5.546508400   8.528883921   7.339903167
Cu       0.004501416  10.257151580   7.313596873
Cu       1.857572412  11.965317771   7.299861751
Cu       3.695929522  10.250960531   7.312027105
Cu       5.526032119  11.966409107   7.294607578
Cu       0.001596285  13.645750971   7.305944303
Cu       1.834836616  15.331686555   7.304651492
Cu       3.690057546  13.657454025   7.291297091
Cu       5.544448040  15.332851185   7.303354472
Cu       0.006118057   1.674016005   9.154047001
Cu       1.851586999  -0.018002944   9.162399172
Cu       3.694956560   1.679689421   9.158119072
Cu       5.532683874  -0.021663078   9.159666108
Cu       0.016618293   5.091941092   9.161363846
Cu       1.854103755   3.378045420   9.154832492
Cu       3.704866166   5.091118619   9.159929625
Cu       5.547326774   3.376009695   9.154564941
Cu       0.022195755   8.555441398   9.142547768
Cu       1.862044468   6.816879438   9.158032239
Cu       3.705860168   8.541414787   9.148416001
Cu       5.556457802   6.814406178   9.162084655
Cu       0.011106004  11.951321736   9.148634661
Cu       1.859549996  10.257479667   9.137932604
Cu       3.696750747  11.964267755   9.137133227
Cu       5.548753913  10.266278785   9.128559349
Cu       0.002729162  15.329965683   9.170430444
Cu       1.849284968  13.640024125   9.158880451
Cu       3.692494486  15.319188976   9.156268867
Cu       5.539077485  13.637043430   9.154473270
Cu       0.006678600  -0.015062977  11.017642183
Cu       1.856305314   1.672816535  11.003350550
Cu       3.697382371  -0.024407125  11.002731163
Cu       5.544154201   1.675543910  11.000753315
Cu       0.015377859   3.373374527  10.993164920
Cu       1.868214617   5.092554389  10.983774639
Cu       3.707846649   3.389401912  11.005359999
Cu       5.563080491   5.083280494  10.979659026
Cu       0.052104363   6.836417140  10.965709232
Cu       1.875975739   8.547161809  10.977426066
Cu       3.720019000   6.812461375  10.971925095
Cu       5.576457036   8.570114610  10.946929430
Cu       0.037370916  10.259450845  10.992050926
Cu       1.864534679  11.948212730  11.005821686
Cu       3.716909412  10.279054742  10.962041047
Cu       5.564383990  11.948757817  11.004071588
Cu       0.016016749  13.630184640  11.025943012
Cu       1.850816477  15.328917129  11.018126530
Cu       3.705548906  13.636627112  11.013972773
Cu       5.545408449  15.322246946  11.023701801
Cu       0.012294439   1.689166865  12.843723878
Cu       1.850260875  -0.017169038  12.872163915
Cu       3.697187950   1.664373814  12.843458646
Cu       5.549678574  -0.007942357  12.860029854
Cu       0.036537764   5.087108164  12.804612883
Cu       1.872223176   3.385348104  12.819379635
Cu       3.731486093   5.138052938  12.856844572
Cu       5.537946265   3.381594263  12.827453522
Cu       0.083284267   8.561143449  12.829686775
Cu       1.899237085   6.799275051  12.825443641
Cu       3.736317504   8.572816543  12.727849929
Cu       5.628353142   6.858415512  12.728828535
Cu       0.048666206  11.934933251  12.864864951
Cu       1.906815868  10.257255155  12.837930195
Cu       3.739947521  11.942940836  12.855270741
Cu       5.587952339  10.237654203  12.823206757
Cu       0.015980476  15.326999315  12.883779878
Cu       1.871678295  13.636676408  12.861726128
Cu       3.712098950  15.332886047  12.866657513
Cu       5.579386003  13.623146156  12.879784057
Cu       0.024056823   0.021691743  14.677389675
Cu       1.855643873   1.715603996  14.687754593
Cu       3.686885857  -0.006504072  14.695557211
Cu       5.528568425   1.681717722  14.681513975
Cu      -0.026391147   3.350492707  14.688392398
Cu       1.779844603   5.020935568  14.632380813
Cu       3.715103052   3.377836321  14.645170830
Cu       5.588423289   5.075529518  14.633552661
Cu      -0.023957897   6.809799657  14.601573148
Cu       1.919047157   8.496769547  14.611579118
Cu       4.090675641   7.032962730  14.492258294
Cu       5.762978577   8.698831899  14.741425061
Cu       0.197171917  10.300105534  14.714504156
Cu       1.942567894  11.981664452  14.686775467
Cu       3.729617805  10.214455667  14.655739368
Cu       5.596009944  11.869554198  14.688175574
Cu       0.013212369  13.606358634  14.709102069
Cu       1.859634187  15.308451120  14.694082386
Cu       3.778438321  13.636402120  14.677460990
Cu       5.574239208  15.358690297  14.692656938
C       -0.037603798   0.709941429  17.629817655
C       -0.043428967   2.126063504  17.758542110
C        1.192167017   0.000445410  17.583598849
C        1.183255453   2.837363705  17.841909729
C        2.419951276   0.714092477  17.601844083
C        2.413678918   2.129330568  17.736816566
C        3.650244091   0.000733127  17.535012646
C        3.641550517   2.846926585  17.780667836
C        4.880363724   0.715681580  17.580406431
C        4.875025235   2.133434131  17.690992385
C        6.108979578   0.002201484  17.568146988
C        6.104531649   2.837495761  17.799909574
C       -0.052723338   4.964337124  18.014807171
C       -0.060810041   6.383480794  18.033544342
C        1.177506363   4.246470686  18.029372072
C        1.167435779   7.094767931  18.090911196
C        2.401608342   4.959283955  18.102403142
C        2.382030235   6.372693912  18.147366239
C        3.635746131   4.253969510  17.929298605
C        3.585662306   7.055939355  17.570501383
C        3.121294083   6.725572938  16.071577966
H        3.155456898   5.603649285  15.982413779
H        2.043715656   7.011181584  16.002267970
C        4.872825597   4.968408575  17.890926138
C        4.879181872   6.369588461  17.820380729
C        6.103915933   4.253700515  17.896604887
C        6.086434719   7.084016343  17.862161808
C       -0.051272934   9.214363858  17.761136823
C       -0.045029320  10.641416438  17.670373041
C        1.176035382   8.509541542  17.875717346
C        1.185067461  11.356530695  17.666363165
C        2.410937861   9.225535429  17.767514791
C        2.414085998  10.647062206  17.700334837
C        3.630140336   8.528094534  17.732329628
C        3.642529798  11.358610414  17.661525688
C        4.856007005   9.219760073  17.699725568
C        4.868323207  10.646560993  17.668302429
C        6.095191024   8.507873489  17.745991991
C        6.101930579  11.354369065  17.641745676
C       -0.037003116  13.490171243  17.563269957
C       -0.036500372  14.911086585  17.545402029
C        1.191710311  12.779110974  17.611991406
C        1.195076771  15.620361582  17.545907251
C        2.422085961  13.488816345  17.588172693
C        2.424076565  14.908570928  17.540994943
C        3.648940863  12.781237549  17.604070815
C        3.653345914  15.618845640  17.525032150
C        4.880109601  13.488101698  17.571178208
C        4.881039451  14.908906032  17.531653667
C        6.108653414  12.778513857  17.592349975
C        6.113540446  15.621231858  17.529271849

K_POINTS automatic
4 2 1  0 0 0

CELL_PARAMETERS angstrom
7.378073983 0.000000000 0.0000000000
0.000000000 17.038932 0.0000000000
0.000000000 0.000000000 25.00
