&control
    calculation = 'scf'
    prefix = 'gc'
    pseudo_dir = '/home/549/hxw549/Short/pseudopotentials/'
    outdir = './'
    restart_mode = 'from_scratch'
    etot_conv_thr = 1.d-6
    forc_conv_thr = 1.d-5
    
/

&system
    ibrav = 0
    nat = 150
    ntyp = 5
    ecutwfc = 80
    occupations = 'smearing'
    smearing = 'gaussian'
    degauss = 0.1
    vdw_corr='grimme-d2'
    tot_charge=1
/

&electrons
    diagonalization = 'david'
    diago_thr_init = 1.d-4
    mixing_mode = 'local-TF'
    mixing_beta = 0.7
    conv_thr =  1.d-8
/	

&ions
    
/


ATOMIC_SPECIES
Cu 63.546 Cu.pbe-n-van_ak.UPF
C_h 12.0107 C.star1s-pbe-mt_gipaw.UPF
C   12.0107 C.pbe-mt_gipaw.UPF
O   15.9994 O.pbe-van_gipaw.UPF
H  1.007825032 H.pbe-van_ak.UPF


ATOMIC_POSITIONS angstrom
Cu       0.000918624  -0.000609107   7.369381325
Cu       1.845210481   1.707416330   7.370766934
Cu       3.689902298  -0.000042781   7.369610791
Cu       5.534584499   1.707308309   7.370802753
Cu       0.000799662   3.411608413   7.370706184
Cu       1.845253630   5.113223644   7.367755127
Cu       3.689887790   3.411219660   7.370178365
Cu       5.534411128   5.113243996   7.367944421
Cu       0.000748168   6.814697174   7.365424071
Cu       1.845364457   8.515896655   7.366131545
Cu       3.689860778   6.814613671   7.365490092
Cu       5.534322328   8.515916977   7.366311843
Cu       0.000866278  10.216252525   7.369182738
Cu       1.845492288  11.916986010   7.371857539
Cu       3.689874308  10.216458467   7.369822551
Cu       5.534374042  11.917002773   7.371864757
Cu       0.000910378  13.620779983   7.370856200
Cu       1.845659465  15.328591483   7.369395450
Cu       3.689977036  13.620366837   7.371397212
Cu       5.534267775  15.328619795   7.369367691
Cu       0.000886907   1.706399806   9.200826874
Cu       1.845452339  -0.001681511   9.197115262
Cu       3.689978874   1.707365954   9.201315176
Cu       5.534505741  -0.001638210   9.197209367
Cu       0.000848876   5.116908180   9.203359501
Cu       1.845468168   3.413486687   9.203500547
Cu       3.689820056   5.116271555   9.202605190
Cu       5.534347950   3.413391517   9.203491582
Cu       0.000799484   8.513659747   9.202965950
Cu       1.845265383   6.815890994   9.201633837
Cu       3.689784549   8.513222241   9.203033885
Cu       5.534366584   6.815913227   9.201823115
Cu       0.000861132  11.915581070   9.204771609
Cu       1.845496661  10.212579271   9.205740565
Cu       3.689913184  11.915267979   9.206457454
Cu       5.534216161  10.212645216   9.205734642
Cu       0.000937426  15.328665851   9.197005631
Cu       1.845488849  13.621288763   9.201318346
Cu       3.689981083  15.328861700   9.196871964
Cu       5.534402204  13.621298772   9.201392276
Cu       0.001066289  -0.004542111  11.034601986
Cu       1.846223112   1.704849760  11.037216312
Cu       3.690138626  -0.004124676  11.033781990
Cu       5.534059312   1.704942302  11.037429189
Cu       0.001089420   3.414440059  11.041381287
Cu       1.845963743   5.119944224  11.047868736
Cu       3.690041321   3.416136287  11.044508402
Cu       5.533923125   5.119723358  11.047630761
Cu       0.000865046   6.817163525  11.051459375
Cu       1.845519310   8.509752543  11.052457767
Cu       3.689732635   6.815437886  11.051814913
Cu       5.533952120   8.509921282  11.052405878
Cu       0.000901037  10.209798001  11.049393305
Cu       1.845368981  11.915017160  11.044987201
Cu       3.689626788  10.207373605  11.051124714
Cu       5.534386839  11.915044613  11.044903078
Cu       0.000900823  13.622724149  11.039320524
Cu       1.845270596  15.329331383  11.035434024
Cu       3.690000878  13.624553196  11.039634928
Cu       5.534836454  15.329429690  11.035444894
Cu       0.001384567   1.702271991  12.865861385
Cu       1.846760998  -0.004835586  12.871623903
Cu       3.690547635   1.699821636  12.871023829
Cu       5.533930005  -0.004863638  12.871686968
Cu       0.001168163   5.116093173  12.888306900
Cu       1.849604551   3.411945789  12.876256215
Cu       3.689904849   5.122038248  12.900893405
Cu       5.531085242   3.411822718  12.876237526
Cu       0.000958329   8.510857902  12.903879820
Cu       1.847646004   6.815008603  12.907227038
Cu       3.689050392   8.503437469  12.907827121
Cu       5.531836877   6.814701678  12.906066725
Cu       0.000707205  11.917915174  12.881307556
Cu       1.844264290  10.208672738  12.890845023
Cu       3.689736153  11.918950506  12.875209534
Cu       5.534791209  10.209338983  12.889912370
Cu       0.001108380  15.329504814  12.876312174
Cu       1.843505045  13.626677155  12.875555746
Cu       3.690143646  15.332650041  12.876050997
Cu       5.536366354  13.626724909  12.875436143
Cu       0.001386788   0.002675247  14.681723784
Cu       1.847304023   1.700454702  14.680777266
Cu       3.690799374  -0.001390560  14.696530375
Cu       5.534356201   1.699567021  14.681685157
Cu       0.000871210   3.399714039  14.675921020
Cu       1.856238112   5.100394079  14.708711579
Cu       3.691226152   3.391282061  14.697232286
Cu       5.524047994   5.101048246  14.708437990
Cu       0.000386254   6.802592681  14.717879756
Cu       1.845863313   8.518032790  14.731477470
Cu       3.689484736   6.816114250  14.773448646
Cu       5.532622453   8.517803677  14.727975055
Cu      -0.000777163  10.222065495  14.713588324
Cu       1.840785324  11.923913833  14.687622352
Cu       3.689860866  10.227288727  14.697296390
Cu       5.538152594  11.924782385  14.688511167
Cu       0.000857360  13.627655144  14.699003590
Cu       1.845981052  15.332800644  14.689630298
Cu       3.689749834  13.623110394  14.682711907
Cu       5.534468140  15.332575784  14.689873150
C       -0.002373830   0.716693680  17.615899917
C       -0.001047963   2.135341205  17.603464693
C        1.226660940   0.007076281  17.605740661
C        1.226806174   2.845169043  17.575615616
C        2.455420621   0.716453384  17.591936572
C        2.456042872   2.135384484  17.574938341
C        3.686025631   0.005492985  17.593439138
C        3.687186614   2.848715262  17.566949799
C        4.917071858   0.716523719  17.601390262
C        4.918216505   2.135207690  17.582824376
C        6.145689751   0.007245692  17.611187530
C        6.148386032   2.844035258  17.579365582
C       -0.002010551   4.974169532  17.544799142
C       -0.000718103   6.393533647  17.528944027
C        1.225514422   4.264043220  17.547446670
C        1.233047519   7.101379760  17.586105544
C        2.454648094   4.979769527  17.567707742
C        2.442869821   6.386626227  17.628404587
C        3.686353676   4.263973681  17.574736361
C_h        3.686647693   7.096781688  18.031472194
O        3.624665856   7.033451823  19.551302547
H        4.522801874   7.263772388  19.880267242
C        4.919071324   4.977251086  17.567873439
C        4.930653357   6.385330817  17.629258650
C        6.148519456   4.262571139  17.550039023
C        6.142928980   7.100927179  17.586685480
C       -0.001552541   9.231964503  17.603241444
C       -0.001311592  10.655302801  17.577454848
C        1.228101581   8.526034771  17.614291599
C        1.229576129  11.365939738  17.572582213
C        2.463128996   9.236912346  17.625576308
C        2.459705660  10.658220383  17.592871637
C        3.686561042   8.543658353  17.681268034
C        3.687428117  11.368113016  17.606262606
C        4.910237028   9.237310158  17.626103765
C        4.915380841  10.659474947  17.599479097
C        6.146117226   8.525971301  17.616341053
C        6.145879468  11.366439830  17.580835568
C       -0.002602309  13.496950163  17.572244472
C       -0.004290448  14.916961148  17.589237315
C        1.228548493  12.786095916  17.577502424
C        1.225139276  15.626393989  17.593041341
C        2.456678448  13.496363184  17.597879060
C        2.455648710  14.916147821  17.598002914
C        3.686255095  12.788103212  17.605892166
C        3.684601267  15.624993144  17.609263974
C        4.915285930  13.496118705  17.600856587
C        4.913957449  14.916046284  17.600497583
C        6.144608339  12.786608556  17.582010058
C        6.144622788  15.626558290  17.594732086

K_POINTS automatic
4 2 1  0 0 0

CELL_PARAMETERS angstrom
7.378073983 0.000000000 0.0000000000
0.000000000 17.038932 0.0000000000
0.000000000 0.000000000 25.00
