&BANDS
  prefix="graphene"
  outdir="."
  filband="bands1.dat"
  lsym=.true.
/

