&control
    calculation = 'scf'
    prefix = 'gc'
    pseudo_dir = '/home/549/hxw549/Short/pseudopotentials/'
    outdir = './'
    restart_mode = 'from_scratch'
    etot_conv_thr = 1.d-6
    forc_conv_thr = 1.d-5
/
&system
    ibrav = 0
    nat = 152
    ntyp = 5
    ecutwfc = 80
    occupations = 'smearing'
    smearing = 'gaussian'
    degauss = 0.1
    vdw_corr='grimme-d2'
    tot_charge=1
/
&electrons
    diagonalization = 'david'
    diago_thr_init = 1.d-4
    mixing_mode = 'local-TF'
    mixing_beta = 0.7
    conv_thr =  1.d-8
/	
&ions
/
ATOMIC_SPECIES
Cu 63.546 Cu.pbe-n-van_ak.UPF
C_h 12.0107 C.star1s-pbe-mt_gipaw.UPF
C   12.0107 C.pbe-mt_gipaw.UPF
O   15.9994 O.pbe-van_gipaw.UPF
H  1.007825032 H.pbe-van_ak.UPF
ATOMIC_POSITIONS angstrom
Cu       0.000621530  -0.002715657   7.377765587
Cu       1.844922507   1.706885798   7.377220037
Cu       3.689462136  -0.001923116   7.377974368
Cu       5.534169816   1.706651093   7.377071504
Cu       0.000464717   3.412046399   7.375398776
Cu       1.844941919   5.114033122   7.371473671
Cu       3.689551528   3.411894687   7.374568181
Cu       5.534084014   5.114099966   7.371498888
Cu       0.000458913   6.814511474   7.369381177
Cu       1.844993253   8.513626910   7.370417543
Cu       3.689509508   6.814256806   7.369009651
Cu       5.534023573   8.513691932   7.370405162
Cu       0.000507204  10.212329956   7.374126738
Cu       1.845135832  11.912590730   7.377413043
Cu       3.689499420  10.212585598   7.374277777
Cu       5.533940495  11.912420966   7.377509275
Cu       0.000451705  13.616803097   7.378143738
Cu       1.845065242  15.325402396   7.378153543
Cu       3.689620526  13.616271657   7.378701464
Cu       5.534062693  15.325658843   7.378088428
Cu       0.000519263   1.708344140   9.206842653
Cu       1.845008263  -0.001756382   9.204348565
Cu       3.689531606   1.709339296   9.207124069
Cu       5.534101801  -0.001677067   9.204459441
Cu       0.000510741   5.118072883   9.208213996
Cu       1.845163090   3.416177681   9.208744397
Cu       3.689511580   5.117704504   9.208188947
Cu       5.533895334   3.415971331   9.208396793
Cu       0.000483458   8.510240035   9.209848813
Cu       1.845224647   6.814740713   9.208107299
Cu       3.689530662   8.509826347   9.209702641
Cu       5.533813504   6.814838234   9.208102615
Cu       0.000507432  11.909284925   9.211500802
Cu       1.845116554  10.207435756   9.212221834
Cu       3.689536555  11.909029233   9.213050039
Cu       5.533952670  10.207299742   9.212442210
Cu       0.000531969  15.325704807   9.204772738
Cu       1.845074399  13.615758236   9.208309036
Cu       3.689550550  15.326024858   9.203892116
Cu       5.534030963  13.615896175   9.208100001
Cu       0.000407276  -0.002536070  11.039863306
Cu       1.845694646   1.709442289  11.042563168
Cu       3.689627928  -0.002389607  11.038703692
Cu       5.533328562   1.709812683  11.042817108
Cu       0.000459644   3.419298099  11.048362903
Cu       1.845544626   5.121263705  11.057493008
Cu       3.689529335   3.420355293  11.051302788
Cu       5.533536952   5.120865079  11.056777657
Cu       0.000530813   6.814460963  11.061000302
Cu       1.844986408   8.505253751  11.061817096
Cu       3.689550011   6.813754543  11.062025940
Cu       5.534123930   8.504999106  11.062200629
Cu       0.000553042  10.202976178  11.058574324
Cu       1.845175106  11.907360971  11.052639994
Cu       3.689538048  10.200171625  11.059932608
Cu       5.533915580  11.907777512  11.052254048
Cu       0.000596090  13.616591951  11.044998500
Cu       1.844516311  15.327082520  11.040247936
Cu       3.689465253  13.619322208  11.044751453
Cu       5.534580714  15.326925822  11.040243551
Cu       0.000217647   1.708252195  12.870464691
Cu       1.846015770  -0.002209338  12.872474795
Cu       3.689537565   1.705714389  12.876169770
Cu       5.532876278  -0.002205256  12.872504150
Cu       0.000321293   5.117560090  12.903855949
Cu       1.848742179   3.415840767  12.886428633
Cu       3.689480665   5.123287047  12.914114882
Cu       5.530064222   3.416726722  12.887290801
Cu       0.000681612   8.505393132  12.917659246
Cu       1.846448189   6.813341963  12.920739415
Cu       3.689436926   8.497358072  12.922073351
Cu       5.532834460   6.811668192  12.920222749
Cu       0.000699982  11.909523921  12.888673865
Cu       1.844524385  10.200014417  12.903006723
Cu       3.689334503  11.911325797  12.881429783
Cu       5.534661709  10.201099895  12.901560544
Cu       0.000440301  15.327815486  12.877106794
Cu       1.842975225  13.621574769  12.878922688
Cu       3.689526014  15.330549636  12.876857077
Cu       5.536076316  13.621337842  12.878873965
Cu       0.000216544   0.004153634  14.677313764
Cu       1.847429272   1.700879983  14.685591578
Cu       3.689369467  -0.001220591  14.692846795
Cu       5.531010217   1.701594958  14.685188627
Cu       0.000997825   3.399047318  14.691060685
Cu       1.851755676   5.102011640  14.727168414
Cu       3.688328124   3.395593761  14.711582183
Cu       5.526421243   5.101335920  14.730235225
Cu       0.000582651   6.804935937  14.743071077
Cu       1.851469859   8.511145732  14.753036584
Cu       3.689992893   6.807911081  14.793688680
Cu       5.527734662   8.511514282  14.747636041
Cu       0.000090146  10.212041480  14.728258477
Cu       1.838028981  11.919007513  14.693969906
Cu       3.690064851  10.225000691  14.711426608
Cu       5.540950612  11.918881553  14.694212213
Cu       0.000333521  13.625756633  14.697737788
Cu       1.844646560  15.332243487  14.687264668
Cu       3.689553998  13.618687037  14.680544022
Cu       5.534157022  15.332125044  14.686966328
C        0.000046938   0.725082323  17.601248404
C        0.000324254   2.144303012  17.606872776
C        1.229645721   0.015770763  17.594375543
C        1.228836536   2.853358925  17.603244237
C        2.458495948   0.725433085  17.583137612
C        2.458563216   2.144231260  17.592939098
C        3.689477871   0.014558351  17.562505625
C        3.689650448   2.859020714  17.598643737
C        4.920222374   0.725936362  17.579825047
C        4.920972868   2.144855098  17.588900520
C        6.148670792   0.015723343  17.591020575
C        6.150083220   2.854384234  17.598248665
C       -0.000489903   4.983116621  17.600341533
C       -0.000390979   6.402235403  17.597319458
C        1.226842115   4.272638904  17.602707314
C        1.231917717   7.109847703  17.665536485
C        2.455922073   4.987296719  17.652558371
C        2.439833460   6.392566599  17.732231653
C        3.689447923   4.272835585  17.647523449
C_h        3.693244679   7.114507570  18.139402621
C        4.921084373   4.989815343  17.630246150
C        4.935328652   6.395218894  17.717338600
C        6.149783128   4.274158479  17.590301850
C        6.144193759   7.110002304  17.661301942
C        0.001309914   9.240496705  17.663222394
C        0.001518629  10.664359247  17.608675451
C        1.229318257   8.534826858  17.680865559
C        1.231968152  11.374685960  17.592509545
C        2.466333657   9.245815445  17.667339685
C        2.462558766  10.666811881  17.614070967
C        3.689557287   8.558641947  17.739005269
C        3.690062864  11.376446366  17.615362370
C        4.913142472   9.246560162  17.678946665
C        4.917956830  10.668186672  17.621646866
C        6.149214100   8.534847814  17.692763523
C        6.149075866  11.374660999  17.597044173
C        0.000603517  13.506040241  17.560896951
C        0.000131526  14.925878089  17.579953851
C        1.231966217  12.795129739  17.575614168
C        1.229359885  15.635355898  17.580265580
C        2.460386213  13.505219669  17.585323738
C        2.460192416  14.924887476  17.573332975
C        3.689507943  12.796431214  17.597384496
C        3.689365454  15.634110436  17.571425097
C        4.918814336  13.504549160  17.586176014
C        4.918337458  14.924268344  17.573214331
C        6.147788992  12.795021968  17.576293410
C        6.148713807  15.635152551  17.578885625
C        3.599461201   7.125961472  19.739955214
O        2.882724286   7.888551300  20.378026863
O        4.365498096   6.156066675  20.321413036
H        4.206081655   6.218065978  21.293629682
K_POINTS automatic
4 2 1  0 0 0
CELL_PARAMETERS angstrom
7.378073983 0.000000000 0.0000000000
0.000000000 17.038932 0.0000000000
0.000000000 0.000000000 25.00
