&control
    calculation = 'relax'
    prefix = 'gc'
    pseudo_dir = '/home/549/hxw549/Short/pseudopotentials/'
    outdir = './'
    restart_mode = 'from_scratch'
    etot_conv_thr = 1.d-6
    forc_conv_thr = 1.d-5
/
&system
    ibrav = 0
    nat = 151
    ntyp = 4
    ecutwfc = 80
    occupations = 'smearing'
    smearing = 'gaussian'
    degauss = 0.1
    vdw_corr='grimme-d2'
/
&electrons
    diagonalization = 'david'
    diago_thr_init = 1.d-4
    mixing_mode = 'local-TF'
    mixing_beta = 0.7
    conv_thr =  1.d-8
/	
&ions
/
ATOMIC_SPECIES
Cu 63.546 Cu.pbe-n-van_ak.UPF
C   12.0107 C.pbe-mt_gipaw.UPF
O   15.9994 O.pbe-van_gipaw.UPF
H  1.007825032 H.pbe-van_ak.UPF
ATOMIC_POSITIONS angstrom
Cu       0.000040767   0.001455737   7.365700555
Cu       1.844651282   1.706608938   7.366399603
Cu       3.689166120   0.001868269   7.365981003
Cu       5.533716256   1.706667060   7.366339844
Cu       0.000235479   3.409506736   7.365686289
Cu       1.844663814   5.111764967   7.362889974
Cu       3.689236707   3.409499090   7.364933969
Cu       5.533952515   5.111784233   7.362800628
Cu       0.000320820   6.814708074   7.361488017
Cu       1.844883658   8.517771729   7.362551473
Cu       3.689298199   6.814559742   7.361099674
Cu       5.533730756   8.517692603   7.362478647
Cu       0.000157669  10.220174544   7.365165442
Cu       1.844749974  11.922635623   7.367237147
Cu       3.689310285  10.220243781   7.365597967
Cu       5.533614104  11.922739455   7.367203345
Cu       0.000158717  13.627188158   7.366585411
Cu       1.844660876  15.333731889   7.365660618
Cu       3.689047722  13.626857073   7.366872348
Cu       5.533534552  15.333627380   7.365664836
Cu       0.000401756   1.706837305   9.198629043
Cu       1.844979783   0.001103327   9.196191463
Cu       3.689467132   1.707903585   9.199137380
Cu       5.533771236   0.001135925   9.196198256
Cu       0.000584750   5.115079378   9.198403863
Cu       1.845218059   3.412388159   9.199880980
Cu       3.689618493   5.114709603   9.197944174
Cu       5.533874093   3.412423755   9.199808366
Cu       0.000568261   8.515353904   9.197316318
Cu       1.845419060   6.815159180   9.196529841
Cu       3.689664961   8.514697400   9.197956795
Cu       5.533882682   6.815137628   9.196494150
Cu       0.000443540  11.920911452   9.199793270
Cu       1.845351904  10.216559966   9.200325283
Cu       3.689486635  11.920818898   9.201199263
Cu       5.533796798  10.216515288   9.200366199
Cu       0.000303370  15.333647248   9.195309552
Cu       1.844963748  13.627197454   9.197561972
Cu       3.689367698  15.333717162   9.195189175
Cu       5.533829277  13.627183879   9.197526550
Cu       0.000726111  -0.001525547  11.035195595
Cu       1.846133186   1.705963769  11.037089955
Cu       3.689820565  -0.000984482  11.035075488
Cu       5.533604721   1.706113189  11.037137354
Cu       0.000925759   3.413894319  11.039233822
Cu       1.846274048   5.119077386  11.044290190
Cu       3.690005182   3.416010204  11.042964333
Cu       5.533905523   5.119050432  11.044224060
Cu       0.001099109   6.817362073  11.044497887
Cu       1.845845000   8.511313174  11.045851641
Cu       3.690145554   6.815189157  11.047173090
Cu       5.534444795   8.511125276  11.046047239
Cu       0.001053061  10.212958443  11.043088942
Cu       1.845578366  11.920196012  11.039643801
Cu       3.690100164  10.211010399  11.045184674
Cu       5.534387904  11.920270189  11.039565938
Cu       0.000835674  13.628133076  11.035929748
Cu       1.845131857  15.333850090  11.035008025
Cu       3.689852226  13.629722378  11.036742911
Cu       5.534442099  15.333797220  11.035000097
Cu       0.001180697   1.702277936  12.867416837
Cu       1.846661300  -0.003153298  12.874125171
Cu       3.690265739   1.701426577  12.873986586
Cu       5.533738519  -0.003083420  12.874026945
Cu       0.001369243   5.119174851  12.883350494
Cu       1.850195596   3.412478058  12.874842808
Cu       3.690551241   5.124128862  12.899165487
Cu       5.530507370   3.412773651  12.875212774
Cu       0.001666656   8.510038275  12.899765767
Cu       1.847145484   6.816589750  12.902360651
Cu       3.690519527   8.504213540  12.902435213
Cu       5.533967014   6.816052014  12.902628011
Cu       0.001496834  11.922883528  12.875315622
Cu       1.845026167  10.210967015  12.883626755
Cu       3.690452384  11.922408120  12.871389579
Cu       5.536179618  10.211082770  12.883205823
Cu       0.001211522  15.332589951  12.876600576
Cu       1.844521177  13.631020685  12.873492035
Cu       3.690242570  15.335422270  12.877304319
Cu       5.536192780  13.630961043  12.873534223
Cu       0.001515370   0.001374396  14.686665365
Cu       1.846280762   1.701224554  14.682145566
Cu       3.690283545  -0.001171600  14.700365854
Cu       5.534554866   1.701375100  14.681967972
Cu       0.001788158   3.404455571  14.668507344
Cu       1.860308851   5.104230042  14.706074416
Cu       3.690126706   3.394466052  14.702092058
Cu       5.520772014   5.103863214  14.708011638
Cu       0.001506475   6.799855888  14.731284314
Cu       1.847939832   8.517076903  14.730587117
Cu       3.690904191   6.819015741  14.778031036
Cu       5.533792807   8.517452481  14.728789865
Cu       0.002121282  10.225141441  14.705028625
Cu       1.843197923  11.926819131  14.682293007
Cu       3.690613104  10.225909811  14.694489246
Cu       5.538367544  11.926093179  14.682027093
Cu       0.001350948  13.630521014  14.697467379
Cu       1.846157897  15.333357221  14.693813956
Cu       3.690914699  13.625669229  14.684086441
Cu       5.534873979  15.333795881  14.693624686
C        0.000047056   0.722490067  17.611110084
C        0.000082404   2.143244758  17.572039334
C        1.229041289   0.010203726  17.620521793
C        1.229302253   2.851505765  17.552813394
C        2.458368237   0.721563126  17.598281256
C        2.458534002   2.142510428  17.568094031
C        3.689045196   0.007747491  17.601391886
C        3.689973934   2.859300109  17.567515511
C        4.920040675   0.721360407  17.597052754
C        4.920984616   2.142563918  17.566536748
C        6.149088909   0.010145928  17.619411426
C        6.149431298   2.853298288  17.551511155
C        0.000219600   4.980276877  17.520579290
C       -0.004287631   6.397547919  17.532136968
C        1.228830326   4.271753260  17.545838236
C        1.232312697   7.101445022  17.666279074
C        2.454553209   4.984859540  17.688337050
C        2.434834780   6.386290227  17.827446742
C        3.690566330   4.272342268  17.666425505
C        3.687090027   7.102401899  18.778619163
C        4.923070276   4.989495055  17.688390749
C        4.935513537   6.389168238  17.841720653
C        6.148933059   4.274888799  17.545535535
C        6.137426315   7.100597044  17.674634264
C        0.001375395   9.224943373  17.560790297
C        0.000950746  10.647913246  17.523250202
C        1.230289656   8.524986261  17.648510399
C        1.231069806  11.359313550  17.539250982
C        2.467036246   9.234877901  17.709187682
C        2.462812148  10.653239878  17.589293551
C        3.687833934   8.549181795  17.861745700
C        3.689844685  11.362892614  17.590286146
C        4.911028782   9.232452059  17.711922340
C        4.915827891  10.651805925  17.588302102
C        6.148158350   8.523437308  17.652863261
C        6.148050006  11.358365065  17.537765561
C        0.000211426  13.490769152  17.577859879
C       -0.000034387  14.913176203  17.617807081
C        1.231565890  12.779760965  17.570269158
C        1.228482574  15.626283080  17.621771944
C        2.458991892  13.491610610  17.609514221
C        2.459006293  14.913291769  17.621573507
C        3.689140604  12.783444566  17.601378962
C        3.688920935  15.624531050  17.625423896
C        4.919357723  13.491578901  17.608307836
C        4.918684918  14.913343284  17.620524736
C        6.146986566  12.779554779  17.568927489
C        6.149355672  15.626153044  17.620658978
C        3.589423128   7.116652446  20.335333987
O        2.867243351   7.891339610  20.937114071
O        4.374851294   6.147330629  20.931831950
K_POINTS automatic
4 2 1  0 0 0
CELL_PARAMETERS angstrom
7.378073983 0.000000000 0.0000000000
0.000000000 17.038932 0.0000000000
0.000000000 0.000000000 25.00
