&control
    calculation = 'scf'
    prefix = 'gc'
    pseudo_dir = '/home/549/hxw549/Short/pseudopotentials/'
    outdir = './'
    restart_mode = 'from_scratch'
    etot_conv_thr = 1.d-6
    forc_conv_thr = 1.d-5
    
/

&system
    ibrav = 0
    nat = 151
    ntyp = 4
    ecutwfc = 80
    occupations = 'smearing'
    smearing = 'gaussian'
    degauss = 0.1
    vdw_corr='grimme-d2'
    tot_charge = 1
/

&electrons
    diagonalization = 'david'
    diago_thr_init = 1.d-4
    mixing_mode = 'local-TF'
    mixing_beta = 0.7
    conv_thr =  1.d-8
    	

/	

&ions
    
/


ATOMIC_SPECIES
Cu 63.546 Cu.pbe-n-van_ak.UPF
C_h 12.0107 C.star1s-pbe-mt_gipaw.UPF
C   12.0107 C.pbe-mt_gipaw.UPF
O   15.9994 O.pbe-van_gipaw.UPF

ATOMIC_POSITIONS angstrom
Cu       0.006325090  -0.013539656   7.362005371
Cu       1.851220960   1.671503620   7.369824815
Cu       3.695313959  -0.014637986   7.360132771
Cu       5.539061330   1.669498191   7.366170605
Cu       0.006807300   3.371126956   7.374650055
Cu       1.851502652   5.089105088   7.380939367
Cu       3.694734700   3.371079293   7.376567590
Cu       5.539706582   5.090365120   7.383508554
Cu       0.006058061   6.819137780   7.382228735
Cu       1.852196907   8.549666979   7.376373599
Cu       3.696913156   6.819622510   7.385187585
Cu       5.539333995   8.547852341   7.380189059
Cu       0.005958293  10.270388932   7.364536117
Cu       1.850893996  11.974067552   7.355107146
Cu       3.695900949  10.268357911   7.367843601
Cu       5.539569095  11.978302115   7.352337742
Cu       0.007944714  13.665115157   7.350188572
Cu       1.849442791  15.347909359   7.356523857
Cu       3.693796742  13.670044212   7.346607969
Cu       5.541648414  15.346668883   7.350117956
Cu       0.006987865   1.660163994   9.213187303
Cu       1.850333602  -0.023201030   9.220703475
Cu       3.694879519   1.662079095   9.216479254
Cu       5.539436805  -0.027223139   9.216157290
Cu       0.009379790   5.086429375   9.194341482
Cu       1.853142615   3.364968580   9.206387131
Cu       3.699027879   5.084845069   9.194557912
Cu       5.539775468   3.364905732   9.203794178
Cu       0.011786503   8.557166835   9.187606647
Cu       1.853321803   6.821695689   9.188612917
Cu       3.698238372   8.558053506   9.190398378
Cu       5.545718655   6.819741682   9.191784811
Cu       0.007474505  11.991981554   9.195132037
Cu       1.852952108  10.283542699   9.191094064
Cu       3.695237776  11.992920796   9.191058756
Cu       5.541678137  10.287396098   9.186826988
Cu       0.006216416  15.341585178   9.216075055
Cu       1.849781371  13.674710230   9.206058913
Cu       3.694152515  15.343152255   9.215206673
Cu       5.540322855  13.677006065   9.202342673
Cu       0.006353213  -0.032453963  11.088730125
Cu       1.853703096   1.664967022  11.075059612
Cu       3.693599953  -0.030203864  11.090431937
Cu       5.538357090   1.656638947  11.061278369
Cu       0.012071721   3.369305105  11.037275917
Cu       1.862144768   5.095048085  11.016089178
Cu       3.697613529   3.376151779  11.050527096
Cu       5.547093701   5.092657562  11.024288309
Cu       0.017225454   6.822855848  11.011963301
Cu       1.864342659   8.557887798  11.010606731
Cu       3.704009398   6.822120436  10.998620135
Cu       5.551111276   8.565574454  10.998725985
Cu       0.016803626  10.293896831  11.019814086
Cu       1.853055735  11.998835394  11.051201054
Cu       3.699233640  10.290691612  11.022485048
Cu       5.542953823  12.001873187  11.043744845
Cu       0.006529439  13.676408778  11.087513184
Cu       1.850966407  15.339501615  11.102531306
Cu       3.695290611  13.673952560  11.083663123
Cu       5.537615914  15.337338367  11.099788445
Cu       0.012528128   1.669204782  12.909692673
Cu       1.851747276  -0.018941213  12.972319291
Cu       3.692221588   1.670589541  12.919013974
Cu       5.537468139  -0.017093982  12.966100974
Cu       0.014506237   5.100571012  12.828958383
Cu       1.863252519   3.371107472  12.861015129
Cu       3.706053018   5.104457693  12.852683401
Cu       5.542889789   3.369139685  12.860829224
Cu       0.030477994   8.577032564  12.805917364
Cu       1.874779882   6.826868789  12.834645087
Cu       3.714211692   8.587862738  12.797137178
Cu       5.572093475   6.842937937  12.789959500
Cu       0.016598277  11.976748136  12.923169353
Cu       1.869569730  10.297192738  12.849587046
Cu       3.702839943  11.979918516  12.913179976
Cu       5.552941179  10.296754682  12.836201075
Cu       0.005851515  15.338670334  12.994161209
Cu       1.852652154  13.658370898  12.973205768
Cu       3.696023197  15.336888660  12.990341099
Cu       5.544603110  13.655389019  12.976294924
Cu       0.019921449   0.022119318  14.826272379
Cu       1.864898581   1.723999255  14.774567368
Cu       3.679008610   0.007538368  14.833082812
Cu       5.525896360   1.690481945  14.785819352
Cu      -0.029813661   3.355504586  14.697661922
Cu       1.808298688   5.038663825  14.591642185
Cu       3.731702961   3.401369902  14.698469263
Cu       5.582954390   5.092884770  14.623594022
Cu      -0.024170634   6.871821329  14.587738826
Cu       1.840863193   8.575137865  14.599758037
Cu       3.835819781   6.902639238  14.589028878
Cu       5.624765698   8.636368077  14.628204494
Cu       0.061030253  10.279334467  14.737074377
Cu       1.884224579  11.951890162  14.797786815
Cu       3.701565191  10.239781828  14.691723317
Cu       5.546870106  11.913161008  14.789476511
Cu       0.002805149  13.622032518  14.841034995
Cu       1.850903359  15.328153818  14.850945871
Cu       3.716659154  13.630510842  14.831796947
Cu       5.543248713  15.351862427  14.848429277
C        0.008805549   0.738142309  18.254267030
C        0.009889889   2.140744209  18.560534341
C        1.237553278   0.030129744  18.109700539
C        1.241011137   2.840305408  18.723649862
C        2.467282613   0.739494255  18.234385057
C        2.469438733   2.139516766  18.548534404
C        3.698492184   0.029840683  18.109236450
C        3.700817976   2.841510566  18.702691446
C        4.929600760   0.739563924  18.243412859
C        4.931908400   2.143075464  18.542132014
C        6.157051812   0.026555981  18.133082167
C        6.159975096   2.845449695  18.717900366
C        0.013878999   4.967707394  19.092718509
C        0.012305784   6.403189177  19.191260877
C        1.243842527   4.243071720  19.019658392
C        1.227608978   7.129107665  19.178527802
C        2.473548000   4.939752338  19.130056471
C_h        2.475358901   6.397226246  19.061165197
C        3.702310019   4.244444678  18.998649225
C        3.715023119   7.129492119  19.223386852
C        4.930699507   4.970119659  19.081754458
C        4.930541465   6.402560090  19.212395568
C        6.162414601   4.259631435  18.980402838
C        6.160462298   7.121706075  19.183992055
C        0.007868672   9.261107576  18.936797316
C        0.009205521  10.666995990  18.655450685
C        1.236256305   8.547829576  19.040756661
C        1.239248083  11.365259662  18.482132425
C        2.471235315   9.254181089  18.910097261
C        2.470103074  10.656971286  18.624801619
C        3.703837778   8.547287757  19.065830954
C        3.698918619  11.364898755  18.477160578
C        4.929748265   9.261226019  18.942162986
C        4.928802465  10.664618890  18.648571428
C        6.158371994   8.548291855  19.051401925
C        6.157241921  11.370453401  18.497862087
C        0.007717397  13.486154413  18.084977832
C        0.007612266  14.916444507  17.960106991
C        1.238545889  12.771660186  18.196631643
C        1.236289901  15.639602411  17.965181238
C        2.466605672  13.483873842  18.078434187
C        2.467014524  14.916711027  17.972993782
C        3.697090466  12.769955978  18.184591708
C        3.696468782  15.638804796  17.983151404
C        4.925931961  13.483233367  18.072473365
C        4.925117779  14.915985999  17.962552291
C        6.155630951  12.774038866  18.201551915
C        6.155473181  15.638344408  17.972618868
C        2.482509970   6.311717392  17.013294118
O        3.440622246   6.964843975  16.557046349
O        1.591098193   5.589636557  16.524751757

K_POINTS automatic
4 2 1  0 0 0

CELL_PARAMETERS angstrom
7.378073983 0.000000000 0.0000000000
0.000000000 17.038932 0.0000000000
0.000000000 0.000000000 25.00
