 &control
    calculation='bands',
    restart_mode='from_scratch',
    pseudo_dir = '.',
    outdir='.',
    prefix='1',
    wf_collect=.true.
    verbosity='high'
    forc_conv_thr = 0.01D-3
    etot_conv_thr = 1D-6
    wf_collect = .true.
 /
 &system
    ibrav = 0,
    nat = 11,
    ntyp = 4,
    ecutwfc = 50,
    occupations='smearing',
    degauss=0.005
    vdw_corr='dft-d'
    tot_charge=0.5
 /
 &electrons
    conv_thr = 1.0e-9
    electron_maxstep = 150,
    mixing_beta=0.3
    diagonalization='cg'
 /
 &ions
    ion_dynamics = 'bfgs'
 /
 &cell
    cell_factor = 10
    cell_dynamics='damp-w'
/
ATOMIC_SPECIES
P 30.97 P.pbe-n-van.UPF
Zr 91.224 Zr.pbe-nsp-van.UPF
O 16 O.pbe-rrkjus.UPF
H 1 H.pbe-rrkjus.UPF
ATOMIC_POSITIONS {crystal}
Zr       0.000381444   0.000263039  -0.000011516
P        0.333734416   0.666926994   0.300249262
P        0.667031911   0.333607637   0.699728761
O        0.139956220   0.782172447   0.215796553
O        0.218465107   0.357889207   0.215824072
O        0.642777110   0.860716177   0.215852669
O        0.860780811   0.218340246   0.784215740
O        0.782240518   0.642635199   0.784154708
O        0.357982949   0.139830740   0.784122021
H        0.333724901   0.666936549   0.551898251
H        0.667099278   0.333619644   0.448080371
CELL_PARAMETERS {angstrom}
5.417202237 7.58679E-06 -1.5423E-05
-2.708594549  4.691425372 4.98917E-06
-1.58786E-05  -3.23754E-06  5.575997826
 K_POINTS crystal
         300
        0.0000000000    0.0000000000    0.0000000000    1.0
        0.0142857143    0.0000000000    0.0000000000    1.0
        0.0285714286    0.0000000000    0.0000000000    1.0
        0.0428571429    0.0000000000    0.0000000000    1.0
        0.0571428571    0.0000000000    0.0000000000    1.0
        0.0714285714    0.0000000000    0.0000000000    1.0
        0.0857142857    0.0000000000    0.0000000000    1.0
        0.1000000000    0.0000000000    0.0000000000    1.0
        0.1142857143    0.0000000000    0.0000000000    1.0
        0.1285714286    0.0000000000    0.0000000000    1.0
        0.1428571429    0.0000000000    0.0000000000    1.0
        0.1571428571    0.0000000000    0.0000000000    1.0
        0.1714285714    0.0000000000    0.0000000000    1.0
        0.1857142857    0.0000000000    0.0000000000    1.0
        0.2000000000    0.0000000000    0.0000000000    1.0
        0.2142857143    0.0000000000    0.0000000000    1.0
        0.2285714286    0.0000000000    0.0000000000    1.0
        0.2428571429    0.0000000000    0.0000000000    1.0
        0.2571428571    0.0000000000    0.0000000000    1.0
        0.2714285714    0.0000000000    0.0000000000    1.0
        0.2857142857    0.0000000000    0.0000000000    1.0
        0.3000000000    0.0000000000    0.0000000000    1.0
        0.3142857143    0.0000000000    0.0000000000    1.0
        0.3285714286    0.0000000000    0.0000000000    1.0
        0.3428571429    0.0000000000    0.0000000000    1.0
        0.3571428571    0.0000000000    0.0000000000    1.0
        0.3714285714    0.0000000000    0.0000000000    1.0
        0.3857142857    0.0000000000    0.0000000000    1.0
        0.4000000000    0.0000000000    0.0000000000    1.0
        0.4142857143    0.0000000000    0.0000000000    1.0
        0.4285714286    0.0000000000    0.0000000000    1.0
        0.4428571429    0.0000000000    0.0000000000    1.0
        0.4571428571    0.0000000000    0.0000000000    1.0
        0.4714285714    0.0000000000    0.0000000000    1.0
        0.4857142857    0.0000000000    0.0000000000    1.0
        0.5000000000    0.0000000000    0.0000000000    1.0
        0.5083335000   -0.0166665000    0.0000000000    1.0
        0.5166670000   -0.0333330000    0.0000000000    1.0
        0.5250005000   -0.0499995000    0.0000000000    1.0
        0.5333340000   -0.0666660000    0.0000000000    1.0
        0.5416675000   -0.0833325000    0.0000000000    1.0
        0.5500010000   -0.0999990000    0.0000000000    1.0
        0.5583345000   -0.1166655000    0.0000000000    1.0
        0.5666680000   -0.1333320000    0.0000000000    1.0
        0.5750015000   -0.1499985000    0.0000000000    1.0
        0.5833350000   -0.1666650000    0.0000000000    1.0
        0.5916685000   -0.1833315000    0.0000000000    1.0
        0.6000020000   -0.1999980000    0.0000000000    1.0
        0.6083355000   -0.2166645000    0.0000000000    1.0
        0.6166690000   -0.2333310000    0.0000000000    1.0
        0.6250025000   -0.2499975000    0.0000000000    1.0
        0.6333360000   -0.2666640000    0.0000000000    1.0
        0.6416695000   -0.2833305000    0.0000000000    1.0
        0.6500030000   -0.2999970000    0.0000000000    1.0
        0.6583365000   -0.3166635000    0.0000000000    1.0
        0.6666700000   -0.3333300000    0.0000000000    1.0
        0.6583365000   -0.3416635000    0.0000000000    1.0
        0.6500030000   -0.3499970000    0.0000000000    1.0
        0.6416695000   -0.3583305000    0.0000000000    1.0
        0.6333360000   -0.3666640000    0.0000000000    1.0
        0.6250025000   -0.3749975000    0.0000000000    1.0
        0.6166690000   -0.3833310000    0.0000000000    1.0
        0.6083355000   -0.3916645000    0.0000000000    1.0
        0.6000020000   -0.3999980000    0.0000000000    1.0
        0.5916685000   -0.4083315000    0.0000000000    1.0
        0.5833350000   -0.4166650000    0.0000000000    1.0
        0.5750015000   -0.4249985000    0.0000000000    1.0
        0.5666680000   -0.4333320000    0.0000000000    1.0
        0.5583345000   -0.4416655000    0.0000000000    1.0
        0.5500010000   -0.4499990000    0.0000000000    1.0
        0.5416675000   -0.4583325000    0.0000000000    1.0
        0.5333340000   -0.4666660000    0.0000000000    1.0
        0.5250005000   -0.4749995000    0.0000000000    1.0
        0.5166670000   -0.4833330000    0.0000000000    1.0
        0.5083335000   -0.4916665000    0.0000000000    1.0
        0.5000000000   -0.5000000000    0.0000000000    1.0
        0.4916665000   -0.5083335000    0.0000000000    1.0
        0.4833330000   -0.5166670000    0.0000000000    1.0
        0.4749995000   -0.5250005000    0.0000000000    1.0
        0.4666660000   -0.5333340000    0.0000000000    1.0
        0.4583325000   -0.5416675000    0.0000000000    1.0
        0.4499990000   -0.5500010000    0.0000000000    1.0
        0.4416655000   -0.5583345000    0.0000000000    1.0
        0.4333320000   -0.5666680000    0.0000000000    1.0
        0.4249985000   -0.5750015000    0.0000000000    1.0
        0.4166650000   -0.5833350000    0.0000000000    1.0
        0.4083315000   -0.5916685000    0.0000000000    1.0
        0.3999980000   -0.6000020000    0.0000000000    1.0
        0.3916645000   -0.6083355000    0.0000000000    1.0
        0.3833310000   -0.6166690000    0.0000000000    1.0
        0.3749975000   -0.6250025000    0.0000000000    1.0
        0.3666640000   -0.6333360000    0.0000000000    1.0
        0.3583305000   -0.6416695000    0.0000000000    1.0
        0.3499970000   -0.6500030000    0.0000000000    1.0
        0.3416635000   -0.6583365000    0.0000000000    1.0
        0.3333300000   -0.6666700000    0.0000000000    1.0
        0.3249967500   -0.6500032500    0.0000000000    1.0
        0.3166635000   -0.6333365000    0.0000000000    1.0
        0.3083302500   -0.6166697500    0.0000000000    1.0
        0.2999970000   -0.6000030000    0.0000000000    1.0
        0.2916637500   -0.5833362500    0.0000000000    1.0
        0.2833305000   -0.5666695000    0.0000000000    1.0
        0.2749972500   -0.5500027500    0.0000000000    1.0
        0.2666640000   -0.5333360000    0.0000000000    1.0
        0.2583307500   -0.5166692500    0.0000000000    1.0
        0.2499975000   -0.5000025000    0.0000000000    1.0
        0.2416642500   -0.4833357500    0.0000000000    1.0
        0.2333310000   -0.4666690000    0.0000000000    1.0
        0.2249977500   -0.4500022500    0.0000000000    1.0
        0.2166645000   -0.4333355000    0.0000000000    1.0
        0.2083312500   -0.4166687500    0.0000000000    1.0
        0.1999980000   -0.4000020000    0.0000000000    1.0
        0.1916647500   -0.3833352500    0.0000000000    1.0
        0.1833315000   -0.3666685000    0.0000000000    1.0
        0.1749982500   -0.3500017500    0.0000000000    1.0
        0.1666650000   -0.3333350000    0.0000000000    1.0
        0.1583317500   -0.3166682500    0.0000000000    1.0
        0.1499985000   -0.3000015000    0.0000000000    1.0
        0.1416652500   -0.2833347500    0.0000000000    1.0
        0.1333320000   -0.2666680000    0.0000000000    1.0
        0.1249987500   -0.2500012500    0.0000000000    1.0
        0.1166655000   -0.2333345000    0.0000000000    1.0
        0.1083322500   -0.2166677500    0.0000000000    1.0
        0.0999990000   -0.2000010000    0.0000000000    1.0
        0.0916657500   -0.1833342500    0.0000000000    1.0
        0.0833325000   -0.1666675000    0.0000000000    1.0
        0.0749992500   -0.1500007500    0.0000000000    1.0
        0.0666660000   -0.1333340000    0.0000000000    1.0
        0.0583327500   -0.1166672500    0.0000000000    1.0
        0.0499995000   -0.1000005000    0.0000000000    1.0
        0.0416662500   -0.0833337500    0.0000000000    1.0
        0.0333330000   -0.0666670000    0.0000000000    1.0
        0.0249997500   -0.0500002500    0.0000000000    1.0
        0.0166665000   -0.0333335000    0.0000000000    1.0
        0.0083332500   -0.0166667500    0.0000000000    1.0
        0.0000000000    0.0000000000    0.0000000000    1.0
        0.0000000000    0.0000000000    0.0172413793    1.0
        0.0000000000    0.0000000000    0.0344827586    1.0
        0.0000000000    0.0000000000    0.0517241379    1.0
        0.0000000000    0.0000000000    0.0689655172    1.0
        0.0000000000    0.0000000000    0.0862068966    1.0
        0.0000000000    0.0000000000    0.1034482759    1.0
        0.0000000000    0.0000000000    0.1206896552    1.0
        0.0000000000    0.0000000000    0.1379310345    1.0
        0.0000000000    0.0000000000    0.1551724138    1.0
        0.0000000000    0.0000000000    0.1724137931    1.0
        0.0000000000    0.0000000000    0.1896551724    1.0
        0.0000000000    0.0000000000    0.2068965517    1.0
        0.0000000000    0.0000000000    0.2241379310    1.0
        0.0000000000    0.0000000000    0.2413793103    1.0
        0.0000000000    0.0000000000    0.2586206897    1.0
        0.0000000000    0.0000000000    0.2758620690    1.0
        0.0000000000    0.0000000000    0.2931034483    1.0
        0.0000000000    0.0000000000    0.3103448276    1.0
        0.0000000000    0.0000000000    0.3275862069    1.0
        0.0000000000    0.0000000000    0.3448275862    1.0
        0.0000000000    0.0000000000    0.3620689655    1.0
        0.0000000000    0.0000000000    0.3793103448    1.0
        0.0000000000    0.0000000000    0.3965517241    1.0
        0.0000000000    0.0000000000    0.4137931034    1.0
        0.0000000000    0.0000000000    0.4310344828    1.0
        0.0000000000    0.0000000000    0.4482758621    1.0
        0.0000000000    0.0000000000    0.4655172414    1.0
        0.0000000000    0.0000000000    0.4827586207    1.0
        0.0000000000    0.0000000000    0.5000000000    1.0
        0.0142857143    0.0000000000    0.5000000000    1.0
        0.0285714286    0.0000000000    0.5000000000    1.0
        0.0428571429    0.0000000000    0.5000000000    1.0
        0.0571428571    0.0000000000    0.5000000000    1.0
        0.0714285714    0.0000000000    0.5000000000    1.0
        0.0857142857    0.0000000000    0.5000000000    1.0
        0.1000000000    0.0000000000    0.5000000000    1.0
        0.1142857143    0.0000000000    0.5000000000    1.0
        0.1285714286    0.0000000000    0.5000000000    1.0
        0.1428571429    0.0000000000    0.5000000000    1.0
        0.1571428571    0.0000000000    0.5000000000    1.0
        0.1714285714    0.0000000000    0.5000000000    1.0
        0.1857142857    0.0000000000    0.5000000000    1.0
        0.2000000000    0.0000000000    0.5000000000    1.0
        0.2142857143    0.0000000000    0.5000000000    1.0
        0.2285714286    0.0000000000    0.5000000000    1.0
        0.2428571429    0.0000000000    0.5000000000    1.0
        0.2571428571    0.0000000000    0.5000000000    1.0
        0.2714285714    0.0000000000    0.5000000000    1.0
        0.2857142857    0.0000000000    0.5000000000    1.0
        0.3000000000    0.0000000000    0.5000000000    1.0
        0.3142857143    0.0000000000    0.5000000000    1.0
        0.3285714286    0.0000000000    0.5000000000    1.0
        0.3428571429    0.0000000000    0.5000000000    1.0
        0.3571428571    0.0000000000    0.5000000000    1.0
        0.3714285714    0.0000000000    0.5000000000    1.0
        0.3857142857    0.0000000000    0.5000000000    1.0
        0.4000000000    0.0000000000    0.5000000000    1.0
        0.4142857143    0.0000000000    0.5000000000    1.0
        0.4285714286    0.0000000000    0.5000000000    1.0
        0.4428571429    0.0000000000    0.5000000000    1.0
        0.4571428571    0.0000000000    0.5000000000    1.0
        0.4714285714    0.0000000000    0.5000000000    1.0
        0.4857142857    0.0000000000    0.5000000000    1.0
        0.5000000000    0.0000000000    0.5000000000    1.0
        0.5083335000   -0.0166665000    0.5000000000    1.0
        0.5166670000   -0.0333330000    0.5000000000    1.0
        0.5250005000   -0.0499995000    0.5000000000    1.0
        0.5333340000   -0.0666660000    0.5000000000    1.0
        0.5416675000   -0.0833325000    0.5000000000    1.0
        0.5500010000   -0.0999990000    0.5000000000    1.0
        0.5583345000   -0.1166655000    0.5000000000    1.0
        0.5666680000   -0.1333320000    0.5000000000    1.0
        0.5750015000   -0.1499985000    0.5000000000    1.0
        0.5833350000   -0.1666650000    0.5000000000    1.0
        0.5916685000   -0.1833315000    0.5000000000    1.0
        0.6000020000   -0.1999980000    0.5000000000    1.0
        0.6083355000   -0.2166645000    0.5000000000    1.0
        0.6166690000   -0.2333310000    0.5000000000    1.0
        0.6250025000   -0.2499975000    0.5000000000    1.0
        0.6333360000   -0.2666640000    0.5000000000    1.0
        0.6416695000   -0.2833305000    0.5000000000    1.0
        0.6500030000   -0.2999970000    0.5000000000    1.0
        0.6583365000   -0.3166635000    0.5000000000    1.0
        0.6666700000   -0.3333300000    0.5000000000    1.0
        0.6583365000   -0.3416635000    0.5000000000    1.0
        0.6500030000   -0.3499970000    0.5000000000    1.0
        0.6416695000   -0.3583305000    0.5000000000    1.0
        0.6333360000   -0.3666640000    0.5000000000    1.0
        0.6250025000   -0.3749975000    0.5000000000    1.0
        0.6166690000   -0.3833310000    0.5000000000    1.0
        0.6083355000   -0.3916645000    0.5000000000    1.0
        0.6000020000   -0.3999980000    0.5000000000    1.0
        0.5916685000   -0.4083315000    0.5000000000    1.0
        0.5833350000   -0.4166650000    0.5000000000    1.0
        0.5750015000   -0.4249985000    0.5000000000    1.0
        0.5666680000   -0.4333320000    0.5000000000    1.0
        0.5583345000   -0.4416655000    0.5000000000    1.0
        0.5500010000   -0.4499990000    0.5000000000    1.0
        0.5416675000   -0.4583325000    0.5000000000    1.0
        0.5333340000   -0.4666660000    0.5000000000    1.0
        0.5250005000   -0.4749995000    0.5000000000    1.0
        0.5166670000   -0.4833330000    0.5000000000    1.0
        0.5083335000   -0.4916665000    0.5000000000    1.0
        0.5000000000   -0.5000000000    0.5000000000    1.0
        0.4916665000   -0.5083335000    0.5000000000    1.0
        0.4833330000   -0.5166670000    0.5000000000    1.0
        0.4749995000   -0.5250005000    0.5000000000    1.0
        0.4666660000   -0.5333340000    0.5000000000    1.0
        0.4583325000   -0.5416675000    0.5000000000    1.0
        0.4499990000   -0.5500010000    0.5000000000    1.0
        0.4416655000   -0.5583345000    0.5000000000    1.0
        0.4333320000   -0.5666680000    0.5000000000    1.0
        0.4249985000   -0.5750015000    0.5000000000    1.0
        0.4166650000   -0.5833350000    0.5000000000    1.0
        0.4083315000   -0.5916685000    0.5000000000    1.0
        0.3999980000   -0.6000020000    0.5000000000    1.0
        0.3916645000   -0.6083355000    0.5000000000    1.0
        0.3833310000   -0.6166690000    0.5000000000    1.0
        0.3749975000   -0.6250025000    0.5000000000    1.0
        0.3666640000   -0.6333360000    0.5000000000    1.0
        0.3583305000   -0.6416695000    0.5000000000    1.0
        0.3499970000   -0.6500030000    0.5000000000    1.0
        0.3416635000   -0.6583365000    0.5000000000    1.0
        0.3333300000   -0.6666700000    0.5000000000    1.0
        0.3249967500   -0.6500032500    0.5000000000    1.0
        0.3166635000   -0.6333365000    0.5000000000    1.0
        0.3083302500   -0.6166697500    0.5000000000    1.0
        0.2999970000   -0.6000030000    0.5000000000    1.0
        0.2916637500   -0.5833362500    0.5000000000    1.0
        0.2833305000   -0.5666695000    0.5000000000    1.0
        0.2749972500   -0.5500027500    0.5000000000    1.0
        0.2666640000   -0.5333360000    0.5000000000    1.0
        0.2583307500   -0.5166692500    0.5000000000    1.0
        0.2499975000   -0.5000025000    0.5000000000    1.0
        0.2416642500   -0.4833357500    0.5000000000    1.0
        0.2333310000   -0.4666690000    0.5000000000    1.0
        0.2249977500   -0.4500022500    0.5000000000    1.0
        0.2166645000   -0.4333355000    0.5000000000    1.0
        0.2083312500   -0.4166687500    0.5000000000    1.0
        0.1999980000   -0.4000020000    0.5000000000    1.0
        0.1916647500   -0.3833352500    0.5000000000    1.0
        0.1833315000   -0.3666685000    0.5000000000    1.0
        0.1749982500   -0.3500017500    0.5000000000    1.0
        0.1666650000   -0.3333350000    0.5000000000    1.0
        0.1583317500   -0.3166682500    0.5000000000    1.0
        0.1499985000   -0.3000015000    0.5000000000    1.0
        0.1416652500   -0.2833347500    0.5000000000    1.0
        0.1333320000   -0.2666680000    0.5000000000    1.0
        0.1249987500   -0.2500012500    0.5000000000    1.0
        0.1166655000   -0.2333345000    0.5000000000    1.0
        0.1083322500   -0.2166677500    0.5000000000    1.0
        0.0999990000   -0.2000010000    0.5000000000    1.0
        0.0916657500   -0.1833342500    0.5000000000    1.0
        0.0833325000   -0.1666675000    0.5000000000    1.0
        0.0749992500   -0.1500007500    0.5000000000    1.0
        0.0666660000   -0.1333340000    0.5000000000    1.0
        0.0583327500   -0.1166672500    0.5000000000    1.0
        0.0499995000   -0.1000005000    0.5000000000    1.0
        0.0416662500   -0.0833337500    0.5000000000    1.0
        0.0333330000   -0.0666670000    0.5000000000    1.0
        0.0249997500   -0.0500002500    0.5000000000    1.0
        0.0166665000   -0.0333335000    0.5000000000    1.0
        0.0083332500   -0.0166667500    0.5000000000    1.0
        0.0000000000   -0.0000000000    0.5000000000    1.0
