&BANDS
  prefix="1"
  outdir="."
  filband="PREFIX.dat"
/
