 &control
    calculation='vc-relax',
    restart_mode='from_scratch',
    pseudo_dir = '.',
    outdir='.',
    prefix='1',
    wf_collect=.true.
    verbosity='high'
    forc_conv_thr = 0.01D-3
    etot_conv_thr = 1D-6
    wf_collect = .true.
 /
 &system
    ibrav = 14,
    cosBC = 0.0,
    cosAC = 0.0,
    cosAB = -0.5,
    a = 5.423015,
    b = 5.423015,
    c = 5.58275,
    nat = 11,
    ntyp = 4,
    ecutwfc = 50,
    occupations='smearing',
    degauss=0.005
    vdw_corr='dft-d'
    tot_charge=0.5
 /
 &electrons
    conv_thr = 1.0e-9
    electron_maxstep = 150,
    mixing_beta=0.3
    diagonalization='cg'
 /
 &ions
    ion_dynamics = 'bfgs'
 /
 &cell
    cell_factor = 10
    cell_dynamics='damp-w'
/
ATOMIC_SPECIES
P 30.97 P.pbe-n-van.UPF
Zr 91.224 Zr.pbe-nsp-van.UPF
O 16 O.pbe-rrkjus.UPF
H 1 H.pbe-rrkjus.UPF
ATOMIC_POSITIONS {crystal}
Zr       0.000305614   0.000241698  -0.000006124
P        0.333829099   0.666953030   0.295429387
P        0.666972702   0.333615097   0.704527582
O        0.136305330   0.778610379   0.214630172
O        0.222143350   0.357741218   0.214662238
O        0.643045378   0.864482986   0.214735796
O        0.864506489   0.221959293   0.785318896
O        0.778714817   0.642839649   0.785201727
O        0.357782201   0.136084974   0.785379996
H        0.333900469   0.666971687   0.546684378
H        0.666744550   0.333399990   0.453255952
K_POINTS {automatic}
3 3 3 1 1 1
