&control
    calculation = 'scf'
    prefix = 'gc'
    pseudo_dir = '/home/549/hxw549/Short/pseudopotentials/'
    outdir = './'
    restart_mode = 'from_scratch'
    etot_conv_thr = 1.d-6
    forc_conv_thr = 1.d-5
    
/

&system
    ibrav = 0
    nat = 136
    ntyp = 5
    ecutwfc = 80
    occupations = 'smearing'
    smearing = 'gaussian'
    degauss = 0.1
    vdw_corr='grimme-d2'
    tot_charge=1
/

&electrons
    diagonalization = 'david'
    diago_thr_init = 1.d-4
    mixing_mode = 'local-TF'
    mixing_beta = 0.7
    conv_thr =  1.d-8
    	

/	

&ions
    
/


ATOMIC_SPECIES
Cu 63.546 Cu.pbe-n-van_ak.UPF
C_h 12.0107 C.star1s-pbe-mt_gipaw.UPF
C   12.0107 C.pbe-mt_gipaw.UPF
O   15.9994 O.pbe-van_gipaw.UPF
H  1.007825032 H.pbe-van_ak.UPF



ATOMIC_POSITIONS angstrom
Cu       0.000000000  -0.000829132   7.386830164
Cu       1.844443097   1.707942874   7.399365766
Cu       3.689036991  -0.001134632   7.386342761
Cu       5.533630886   1.707942874   7.399365766
Cu       0.000000000   3.410552620   7.417564754
Cu       1.844583530   5.109005578   7.421135158
Cu       3.689036991   3.410610145   7.416149604
Cu       5.533490453   5.109005578   7.421135158
Cu       0.000000000   6.811397165   7.405445987
Cu       1.845362907   8.519546205   7.390832391
Cu       3.689036991   6.809879709   7.408130837
Cu       5.532711076   8.519546205   7.390832391
Cu       0.000000000  10.228933634   7.387590940
Cu       1.844618640  11.932888843   7.393708417
Cu       3.689036991  10.231364494   7.389788570
Cu       5.533455343  11.932888843   7.393708417
Cu       0.000000000  13.629827116   7.393369203
Cu       1.844567973  15.329612597   7.387351672
Cu       3.689036991  13.629138117   7.392659986
Cu       5.533506010  15.329612597   7.387351672
Cu       0.000000000   1.690295420   9.230068351
Cu       1.845000957  -0.007584085   9.217071603
Cu       3.689036991   1.690584522   9.229813714
Cu       5.533073026  -0.007584085   9.217071603
Cu       0.000000000   5.115049268   9.247965771
Cu       1.844995586   3.399102662   9.246207262
Cu       3.689036991   5.111160561   9.250377134
Cu       5.533078397   3.399102662   9.246207262
Cu       0.000000000   8.529024682   9.218965107
Cu       1.844895582   6.825638005   9.234474919
Cu       3.689036991   8.529508833   9.219709006
Cu       5.533178401   6.825638005   9.234474919
Cu       0.000000000  11.929619129   9.222387520
Cu       1.845049433  10.228629925   9.217425243
Cu       3.689036991  11.932897462   9.227650920
Cu       5.533024550  10.228629925   9.217425243
Cu       0.000000000  15.335995280   9.217026434
Cu       1.845095321  13.635767353   9.225119033
Cu       3.689036991  15.336209651   9.216882964
Cu       5.532978662  13.635767353   9.225119033
Cu       0.000000000  -0.013850629  11.073866707
Cu       1.846309207   1.676493268  11.076068066
Cu       3.689036991  -0.014291892  11.077172115
Cu       5.531764776   1.676493268  11.076068066
Cu       0.000000000   3.389777700  11.069676556
Cu       1.846414961   5.122546741  11.073867337
Cu       3.689036991   3.384015417  11.079533723
Cu       5.531659022   5.122546741  11.073867337
Cu       0.000000000   6.838395584  11.075185580
Cu       1.843072374   8.535613490  11.071046059
Cu       3.689036991   6.838262106  11.072555795
Cu       5.535001609   8.535613490  11.071046059
Cu       0.000000000  10.228560324  11.069967711
Cu       1.845418218  11.930202242  11.065383991
Cu       3.689036991  10.227004476  11.070198364
Cu       5.532655765  11.930202242  11.065383991
Cu       0.000000000  13.637894302  11.064603473
Cu       1.845399002  15.340406597  11.074309791
Cu       3.689036991  13.647917553  11.073455227
Cu       5.532674981  15.340406597  11.074309791
Cu       0.000000000   1.676402726  12.916798818
Cu       1.846142499  -0.025097799  12.954115926
Cu       3.689036991   1.647192299  12.949897687
Cu       5.531931484  -0.025097799  12.954115926
Cu       0.000000000   5.113426475  12.877799046
Cu       1.853363673   3.396920151  12.882278744
Cu       3.689036991   5.123170377  12.887012970
Cu       5.524710310   3.396920151  12.882278744
Cu       0.000000000   8.551064728  12.943765852
Cu       1.843770612   6.850442301  12.922224526
Cu       3.689036991   8.544652051  12.934517052
Cu       5.534303371   6.850442301  12.922224526
Cu       0.000000000  11.938188933  12.917000564
Cu       1.842509959  10.239506774  12.929510936
Cu       3.689036991  11.941677121  12.912780744
Cu       5.535564024  10.239506774  12.929510936
Cu       0.000000000  15.322641462  12.934274036
Cu       1.849530278  13.631898710  12.913233388
Cu       3.689036991  15.352632307  12.968917079
Cu       5.528543705  13.631898710  12.913233388
Cu       0.000000000  -0.009063083  14.772903694
Cu       1.841768845   1.726439316  14.700751915
Cu       3.689036991  -0.032767306  14.923258962
Cu       5.536305138   1.726439316  14.700751915
Cu       0.000000000   3.420157710  14.689853458
Cu       1.849360979   5.104600456  14.691237730
Cu       3.689036991   3.416572982  14.704284466
Cu       5.528713004   5.104600456  14.691237730
Cu       0.000000000   6.795142970  14.699938477
Cu       1.834508517   8.554377087  14.781353831
Cu       3.689036991   6.815211385  14.711346597
Cu       5.543565466   8.554377087  14.781353831
Cu       0.000000000  10.275807505  14.771604440
Cu       1.856274996  11.948705476  14.762848102
Cu       3.689036991  10.260547204  14.737887376
Cu       5.521798987  11.948705476  14.762848102
Cu       0.000000000  13.603690576  14.778828113
Cu       1.823981754  15.293169950  14.761127853
Cu       3.689036991  13.630935599  14.779351880
Cu       5.554092229  15.293169950  14.761127853
C        0.000000000   0.670752585  17.528195844
C        0.000000000   2.110750686  17.592684056
C        1.230077244  -0.017132278  17.441953008
C        1.227785152   2.822182153  17.593716107
C        2.451965635   0.674846151  17.388947280
C        2.455417304   2.111786989  17.496303172
C        3.689036991  -0.015999983  17.183209224
C        3.689036991   2.824171415  17.514915917
C        4.926108347   0.674846151  17.388947280
C        4.922656678   2.111786989  17.496303172
C        6.147996739  -0.017132278  17.441953008
C        6.150288831   2.822182153  17.593716107
C        0.000000000   4.965213089  17.637135515
C        0.000000000   6.394765603  17.588618843
C        1.228033460   4.252536458  17.623130202
C        1.229287553   7.106925436  17.549231980
C        2.457948545   4.965409294  17.594226464
C        2.458062247   6.394985135  17.566321935
C        3.689036991   4.252443342  17.579693415
C        3.689036991   7.106536928  17.522690667
C        4.920125437   4.965409294  17.594226464
C        4.920011735   6.394985135  17.566321935
C        6.150040523   4.252536458  17.623130202
C        6.148786430   7.106925436  17.549231980
C        0.000000000   9.241861583  17.432748568
C        1.228751745   8.548294717  17.463493890
C        2.460599949   9.235118523  17.388283093
C_h        3.689036991   8.547259439  17.458425172
C        4.917474033   9.235118523  17.388283093
C        6.149322238   8.548294717  17.463493890
H        1.227916248  -1.109529303  17.395395872
H        3.689036991  -1.103938753  17.296177128
H        6.150157735  -1.109529303  17.395395872
H        0.000000000  10.335707129  17.444012881
H        2.459973369  10.327976124  17.349117907
H        4.918100613  10.327976124  17.349117907

K_POINTS automatic
4 2 1  0 0 0

CELL_PARAMETERS angstrom
7.378073983 0.000000000 0.0000000000
0.000000000 17.038932 0.0000000000
0.000000000 0.000000000 25.00
