&control
    calculation = 'scf'
    prefix = 'graphene'
    pseudo_dir = '/gscratch/hwahab/DFT-code/psp/'
    outdir = './'
    restart_mode = 'from_scratch'
    etot_conv_thr = 1.d-6
    forc_conv_thr = 1.d-5
/
&system
    ibrav = 4
    celldm(1) = 9.84
    celldm(3) = 10
    cosAB = -0.5
    cosAC = 1
    nat = 32
    ntyp = 1
    ecutwfc = 80
    occupations = 'smearing'
    smearing = 'gaussian'
    degauss = 0.1
    vdw_corr='grimme-d2'
/
&electrons
    diagonalization = 'david'
    diago_thr_init = 1.d-4
    mixing_mode = 'local-TF'
    mixing_beta = 0.7
    conv_thr =  1.d-10
/    
&ions
/
ATOMIC_SPECIES
C 12.0107 C.pbe-mt_gipaw.UPF 
ATOMIC_POSITIONS crystal
C 0.16667 0.08333 0.00000
C 0.41667 0.08333 0.00000
C 0.66667 0.08333 0.00000
C 0.91667 0.08333 0.00000
C 0.08333 0.16667 0.00000
C 0.33333 0.16667 0.00000
C 0.58333 0.16667 0.00000
C 0.83333 0.16667 0.00000
C 0.16667 0.33333 0.00000
C 0.41667 0.33333 0.00000
C 0.66667 0.33333 0.00000
C 0.91667 0.33333 0.00000
C 0.08333 0.41667 0.00000
C 0.33333 0.41667 0.00000
C 0.58333 0.41667 0.00000
C 0.83333 0.41667 0.00000
C 0.16667 0.58333 0.00000
C 0.41667 0.58333 0.00000
C 0.66667 0.58333 0.00000
C 0.91667 0.58333 0.00000
C 0.08333 0.66667 0.00000
C 0.33333 0.66667 0.00000
C 0.58333 0.66667 0.00000
C 0.83333 0.66667 0.00000
C 0.16667 0.83333 0.00000
C 0.41667 0.83333 0.00000
C 0.66667 0.83333 0.00000
C 0.91667 0.83333 0.00000
C 0.08333 0.91667 0.00000
C 0.33333 0.91667 0.00000
C 0.58333 0.91667 0.00000
C 0.83333 0.91667 0.00000
K_POINTS automatic
8 8 1 0 0 0
