&control
    calculation = 'relax'
    prefix = 'gc'
    pseudo_dir = '/home/549/hxw549/Short/pseudopotentials/'
    outdir = './'
    restart_mode = 'from_scratch'
    etot_conv_thr = 1.d-6
    forc_conv_thr = 1.d-5
    
/

&system
    ibrav = 0
    nat = 139
    ntyp = 5
    ecutwfc = 80
    occupations = 'smearing'
    smearing = 'gaussian'
    degauss = 0.1
    vdw_corr='xdm_a2'
/

&electrons
    diagonalization = 'david'
    diago_thr_init = 1.d-4
    mixing_mode = 'local-TF'
    mixing_beta = 0.7
    conv_thr =  1.d-8
    	

/	

&ions
    
/


ATOMIC_SPECIES
Cu 63.546 Cu.pbe-n-van_ak.UPF
C_h 12.0107 C.star1s-pbe-mt_gipaw.UPF
C   12.0107 C.pbe-mt_gipaw.UPF
O   15.9994 O.pbe-van_gipaw.UPF
H  1.007825032 H.pbe-van_ak.UPF



ATOMIC_POSITIONS angstrom
Cu      -0.005853387  -0.027764878   7.182667181
Cu       1.842326314   1.673194522   7.186390412
Cu       3.690933509  -0.027244295   7.183690383
Cu       5.532390936   1.685492004   7.183085849
Cu       0.002776492   3.399173791   7.189022018
Cu       1.842599159   5.126063742   7.192460292
Cu       3.682890930   3.398183415   7.191820022
Cu       5.531441267   5.117196722   7.194827692
Cu      -0.005352045   6.839129249   7.191678231
Cu       1.841407952   8.547408002   7.183098792
Cu       3.689505806   6.842466750   7.188819366
Cu       5.531007985   8.551897849   7.182532155
Cu      -0.002948493  10.251928375   7.177462803
Cu       1.841228780  11.945811135   7.181246430
Cu       3.685814178  10.250411835   7.177511876
Cu       5.530831185  11.947654576   7.179299951
Cu      -0.000002068  13.634643756   7.183172646
Cu       1.843043754  15.324120954   7.186075218
Cu       3.683507401  13.633659777   7.184998684
Cu       5.530252100  15.314445693   7.183022812
Cu      -0.002991163   1.671305220   9.024646415
Cu       1.839125775  -0.032132380   9.037271266
Cu       3.683830603   1.669739227   9.024272241
Cu       5.530157099  -0.027664422   9.026568554
Cu      -0.004885567   5.114013864   9.033682244
Cu       1.840062965   3.387017376   9.027461811
Cu       3.684634362   5.116468998   9.027743521
Cu       5.529578644   3.385179379   9.030272413
Cu      -0.005747342   8.560568905   9.029016502
Cu       1.838131004   6.846064912   9.029523790
Cu       3.684236197   8.557798728   9.031840003
Cu       5.529912109   6.844981281   9.027629805
Cu      -0.004893575  11.942898348   9.038320436
Cu       1.839072809  10.251209188   9.027940085
Cu       3.682792358  11.942604887   9.036294438
Cu       5.528004356  10.253916800   9.029426356
Cu      -0.005042603  15.317460501   9.042689335
Cu       1.838692451  13.634769476   9.047560771
Cu       3.684159661  15.320922934   9.044104389
Cu       5.528411027  13.631499730   9.046861078
Cu      -0.003621994  -0.035662818  10.956267079
Cu       1.836699176   1.643821350  10.944796078
Cu       3.674294599  -0.033310935  10.959345374
Cu       5.523014353   1.634297435  10.942877658
Cu      -0.012078022   3.352453149  10.917717527
Cu       1.834195886   5.111768907  10.905890808
Cu       3.682846451   3.356074681  10.918102461
Cu       5.526078849   5.117900374  10.907651757
Cu      -0.008101020   6.863228372  10.924619443
Cu       1.835250417   8.574931087  10.943456220
Cu       3.679782851   6.854497995  10.918301985
Cu       5.526073469   8.569923414  10.938597614
Cu      -0.005765035  10.255473752  10.960807994
Cu       1.833157303  11.934499421  10.954756545
Cu       3.678614091  10.257189358  10.953787185
Cu       5.527660308  11.934025121  10.954065851
Cu      -0.010542943  13.630768129  10.962011863
Cu       1.834814299  15.325011149  10.966280950
Cu       3.681124612  13.633457941  10.952261617
Cu       5.524481602  15.333497895  10.953951377
Cu      -0.015956928   1.654983421  12.867606882
Cu       1.846266855  -0.050238894  12.918105647
Cu       3.675898353   1.634900157  12.893261960
Cu       5.505964996  -0.055374887  12.900671459
Cu      -0.014924325   5.090849509  12.775919855
Cu       1.827607971   3.382758566  12.795686783
Cu       3.682038280   5.102570122  12.779582206
Cu       5.523873505   3.378145257  12.799320298
Cu      -0.006161808   8.560638099  12.870467750
Cu       1.835702551   6.830257244  12.804496599
Cu       3.676214185   8.547263829  12.846616285
Cu       5.522598464   6.851285270  12.814742169
Cu      -0.013997944  11.945510471  12.913061357
Cu       1.832118204  10.273651758  12.918191257
Cu       3.682040259  11.960547715  12.889332199
Cu       5.530352233  10.240165286  12.896309989
Cu      -0.009781415  15.326384987  12.907147833
Cu       1.832271670  13.631123504  12.897303487
Cu       3.675245196  15.324841239  12.914622408
Cu       5.524701625  13.645957836  12.894376746
Cu       0.003312724  -0.004610523  14.785600732
Cu       1.826979923   1.741840609  14.657618128
Cu       3.653482935  -0.027446940  14.967088457
Cu       5.518120011   1.711998164  14.657343941
Cu      -0.022929798   3.426135880  14.664298073
Cu       1.825501162   5.096766181  14.608193597
Cu       3.682557432   3.434045811  14.640759815
Cu       5.529062094   5.107616032  14.612551152
Cu      -0.011516840   6.775694600  14.612861873
Cu       1.833230348   8.486771831  14.702084892
Cu       3.677903972   6.776103636  14.631361397
Cu       5.517900582   8.483279362  14.772513283
Cu      -0.026992763  10.227380817  14.756863744
Cu       1.850318803  11.965614844  14.874456406
Cu       3.695344898  10.210522627  14.681246442
Cu       5.494958338  11.940569020  14.779106180
Cu      -0.055795375  13.635279477  14.759668873
Cu       1.818390207  15.275597657  14.782358050
Cu       3.713697583  13.664148120  14.780034301
Cu       5.532281094  15.337360383  14.780171229
C        0.014237530   0.643786806  17.795484620
C        0.014255017   2.083154658  17.897481421
C        1.242447013  -0.043742572  17.712665325
C        1.245139868   2.793340872  17.939870885
C        2.465752118   0.647604648  17.678090374
C        2.471723356   2.080920944  17.839873052
C        3.702160823  -0.034198288  17.496135239
C        3.701895643   2.792512304  17.906932469
C        4.938909907   0.650281484  17.663357490
C        4.935176824   2.083560246  17.831915272
C        6.162129363  -0.040434180  17.699787729
C        6.164554130   2.794416814  17.942645733
C        0.023321857   4.939470550  18.040212625
C        0.029022974   6.371012658  17.961497265
C        1.249066258   4.225528249  18.012988023
C        1.253439865   7.102327470  17.876715528
C        2.477287992   4.947927889  18.003648584
C        2.479609695   6.385262425  17.950441460
C        3.704046123   4.222204909  18.010467071
C        3.707034696   7.106637497  17.929352373
C        4.931344850   4.939215960  18.037594987
C        4.932691305   6.371567884  17.987358958
C        6.166063247   4.226156325  18.037461533
C        6.168372387   7.059406269  17.914742314
C       -0.004013438   9.185515590  17.605840035
C        1.241930138   8.545781258  17.722568922
C        2.477273574   9.282253428  17.758594577
C        3.717697977   8.553719673  17.830978327
C        4.959257566   9.181529494  17.663536065
C        6.168964403   8.471016148  17.718923897
H        1.234699181  -1.135702365  17.648831864
H        3.706922561  -1.125011008  17.558144878
H        6.170498040  -1.133466391  17.649051815
H       -0.078040877  10.266596117  17.511353344
H        5.043193413  10.259609408  17.550532565
C        2.444565982  10.745804012  17.698971115
O        1.594800562  11.451832882  17.576357914
O        3.440103011  11.376111610  17.600444026
H        3.412219026  12.338407235  17.679299283

K_POINTS automatic
4 2 1  0 0 0

CELL_PARAMETERS angstrom
7.378073983 0.000000000 0.0000000000
0.000000000 17.038932 0.0000000000
0.000000000 0.000000000 25.00
