&control
    calculation = 'relax'
    prefix = 'copper'
    pseudo_dir = '/home/549/hxw549/Short/pseudopotentials/'
    outdir = './'
    restart_mode = 'from_scratch'
    etot_conv_thr = 1.d-6
    forc_conv_thr = 1.d-5

/

&system
    ibrav = 0
    nat = 140
    ntyp = 1
    ecutwfc = 40
    ecutrho = 180
    occupations = 'smearing'
    smearing = 'gaussian'
    degauss = 0.1
    vdw_corr='grimme-d2'
/

&electrons
    diagonalization = 'david'
    diago_thr_init = 1.d-4
    mixing_mode = 'plain'
    mixing_beta = 0.7
    conv_thr =  1.d-8
    	

/	

&ions
    
/


ATOMIC_SPECIES
Cu 63.546 Cu.pbe-n-van_ak.UPF

ATOMIC_POSITIONS angstrom
Cu	0	0	8.569307537
Cu	1.844518496	1.7038932	8.569307537
Cu	3.689036991	0	8.569307537
Cu	5.533555487	1.7038932	8.569307537
Cu	0	3.4077864	8.569307537
Cu	1.844518496	5.1116796	8.569307537
Cu	3.689036991	3.4077864	8.569307537
Cu	5.533555487	5.1116796	8.569307537
Cu	0	6.8155728	8.569307537
Cu	1.844518496	8.519466	8.569307537
Cu	3.689036991	6.8155728	8.569307537
Cu	5.533555487	8.519466	8.569307537
Cu	0	10.2233592	8.569307537
Cu	1.844518496	11.9272524	8.569307537
Cu	3.689036991	10.2233592	8.569307537
Cu	5.533555487	11.9272524	8.569307537
Cu	0	13.6311456	8.569307537
Cu	1.844518496	15.3350388	8.569307537
Cu	3.689036991	13.6311456	8.569307537
Cu	5.533555487	15.3350388	8.569307537
Cu	0	1.7038932	10.34579489
Cu	1.844518496	0	10.34579489
Cu	3.689036991	1.7038932	10.34579489
Cu	5.533555487	0	10.34579489
Cu	0	5.1116796	10.34579489
Cu	1.844518496	3.4077864	10.34579489
Cu	3.689036991	5.1116796	10.34579489
Cu	5.533555487	3.4077864	10.34579489
Cu	0	8.519466	10.34579489
Cu	1.844518496	6.8155728	10.34579489
Cu	3.689036991	8.519466	10.34579489
Cu	5.533555487	6.8155728	10.34579489
Cu	0	11.9272524	10.34579489
Cu	1.844518496	10.2233592	10.34579489
Cu	3.689036991	11.9272524	10.34579489
Cu	5.533555487	10.2233592	10.34579489
Cu	0	15.3350388	10.34579489
Cu	1.844518496	13.6311456	10.34579489
Cu	3.689036991	15.3350388	10.34579489
Cu	5.533555487	13.6311456	10.34579489
Cu	0	0	12.17404019
Cu	1.844518496	1.7038932	12.17404019
Cu	3.689036991	0	12.17404019
Cu	5.533555487	1.7038932	12.17404019
Cu	0	3.4077864	12.17404019
Cu	1.844518496	5.1116796	12.17404019
Cu	3.689036991	3.4077864	12.17404019
Cu	5.533555487	5.1116796	12.17404019
Cu	0	6.8155728	12.17404019
Cu	1.844518496	8.519466	12.17404019
Cu	3.689036991	6.8155728	12.17404019
Cu	5.533555487	8.519466	12.17404019
Cu	0	10.2233592	12.17404019
Cu	1.844518496	11.9272524	12.17404019
Cu	3.689036991	10.2233592	12.17404019
Cu	5.533555487	11.9272524	12.17404019
Cu	0	13.6311456	12.17404019
Cu	1.844518496	15.3350388	12.17404019
Cu	3.689036991	13.6311456	12.17404019
Cu	5.533555487	15.3350388	12.17404019
Cu	0	1.7038932	14
Cu	1.844518496	0	14
Cu	3.689036991	1.7038932	14
Cu	5.533555487	0	14
Cu	0	5.1116796	14
Cu	1.844518496	3.4077864	14
Cu	3.689036991	5.1116796	14
Cu	5.533555487	3.4077864	14
Cu	0	8.519466	14
Cu	1.844518496	6.8155728	14
Cu	3.689036991	8.519466	14
Cu	5.533555487	6.8155728	14
Cu	0	11.9272524	14
Cu	1.844518496	10.2233592	14
Cu	3.689036991	11.9272524	14
Cu	5.533555487	10.2233592	14
Cu	0	15.3350388	14
Cu	1.844518496	13.6311456	14
Cu	3.689036991	15.3350388	14
Cu	5.533555487	13.6311456	14
Cu	0	0	15.82596107
Cu	1.844518496	1.7038932	15.82596107
Cu	3.689036991	0	15.82596107
Cu	5.533555487	1.7038932	15.82596107
Cu	0	3.4077864	15.82596107
Cu	1.844518496	5.1116796	15.82596107
Cu	3.689036991	3.4077864	15.82596107
Cu	5.533555487	5.1116796	15.82596107
Cu	0	6.8155728	15.82596107
Cu	1.844518496	8.519466	15.82596107
Cu	3.689036991	6.8155728	15.82596107
Cu	5.533555487	8.519466	15.82596107
Cu	0	10.2233592	15.82596107
Cu	1.844518496	11.9272524	15.82596107
Cu	3.689036991	10.2233592	15.82596107
Cu	5.533555487	11.9272524	15.82596107
Cu	0	13.6311456	15.82596107
Cu	1.844518496	15.3350388	15.82596107
Cu	3.689036991	13.6311456	15.82596107
Cu	5.533555487	15.3350388	15.82596107
Cu	0	1.7038932	17.65420764
Cu	1.844518496	0	17.65420764
Cu	3.689036991	1.7038932	17.65420764
Cu	5.533555487	0	17.65420764
Cu	0	5.1116796	17.65420764
Cu	1.844518496	3.4077864	17.65420764
Cu	3.689036991	5.1116796	17.65420764
Cu	5.533555487	3.4077864	17.65420764
Cu	0	8.519466	17.65420764
Cu	1.844518496	6.8155728	17.65420764
Cu	3.689036991	8.519466	17.65420764
Cu	5.533555487	6.8155728	17.65420764
Cu	0	11.9272524	17.65420764
Cu	1.844518496	10.2233592	17.65420764
Cu	3.689036991	11.9272524	17.65420764
Cu	5.533555487	10.2233592	17.65420764
Cu	0	15.3350388	17.65420764
Cu	1.844518496	13.6311456	17.65420764
Cu	3.689036991	15.3350388	17.65420764
Cu	5.533555487	13.6311456	17.65420764
Cu	0	0	19.43070839
Cu	1.844518496	1.7038932	19.43070839
Cu	3.689036991	0	19.43070839
Cu	5.533555487	1.7038932	19.43070839
Cu	0	3.4077864	19.43070839
Cu	1.844518496	5.1116796	19.43070839
Cu	3.689036991	3.4077864	19.43070839
Cu	5.533555487	5.1116796	19.43070839
Cu	0	6.8155728	19.43070839
Cu	1.844518496	8.519466	19.43070839
Cu	3.689036991	6.8155728	19.43070839
Cu	5.533555487	8.519466	19.43070839
Cu	0	10.2233592	19.43070839
Cu	1.844518496	11.9272524	19.43070839
Cu	3.689036991	10.2233592	19.43070839
Cu	5.533555487	11.9272524	19.43070839
Cu	0	13.6311456	19.43070839
Cu	1.844518496	15.3350388	19.43070839
Cu	3.689036991	13.6311456	19.43070839
Cu	5.533555487	15.3350388	19.43070839

K_POINTS automatic
2 2 1 0 0 0

CELL_PARAMETERS angstrom
7.378073983 0.000000000 0.0000000000
0.000000000 17.038932 0.0000000000
0.000000000 0.000000000 28.000000000
