&control
    calculation = 'scf'
    prefix = 'gc'
    pseudo_dir = '/home/549/hxw549/Short/pseudopotentials/'
    outdir = './'
    restart_mode = 'from_scratch'
    etot_conv_thr = 1.d-6
    forc_conv_thr = 1.d-5
/
&system
    ibrav = 0
    nat = 149
    ntyp = 4
    ecutwfc = 80
    occupations = 'smearing'
    smearing = 'gaussian'
    degauss = 0.1
    vdw_corr='grimme-d2'
    tot_charge=1
    nspin = 2
    starting_magnetization(4)=1
/
&electrons
    diagonalization = 'david'
    diago_thr_init = 1.d-4
    mixing_mode = 'local-TF'
    mixing_beta = 0.7
    conv_thr =  1.d-8
/	
&ions
/
ATOMIC_SPECIES
Cu 63.546 Cu.pbe-n-van_ak.UPF
C_h 12.0107 C.star1s-pbe-mt_gipaw.UPF
C   12.0107 C.pbe-mt_gipaw.UPF
O   15.9994 O.pbe-van_gipaw.UPF
ATOMIC_POSITIONS angstrom
Cu       0.000869043   0.001291866   7.371727893
Cu       1.844995559   1.708605262   7.372820225
Cu       3.689841186   0.002083398   7.371812704
Cu       5.534623643   1.708746170   7.373420543
Cu       0.000687928   3.412109395   7.372501851
Cu       1.845285579   5.113306286   7.368915498
Cu       3.689807546   3.411848624   7.372518109
Cu       5.534226265   5.113338374   7.369314086
Cu       0.000669009   6.814533041   7.366081317
Cu       1.845488657   8.515782310   7.366840195
Cu       3.689837656   6.814478189   7.366348247
Cu       5.534127729   8.515803393   7.367253008
Cu       0.000892490  10.216498108   7.370205736
Cu       1.845312579  11.917903421   7.373243354
Cu       3.689786352  10.216592092   7.371516556
Cu       5.534532878  11.917513174   7.373765963
Cu       0.000616600  13.622274783   7.372670712
Cu       1.845949343  15.330573203   7.371383660
Cu       3.690265464  13.621711109   7.373128233
Cu       5.533923522  15.330794868   7.371349356
Cu       0.000886048   1.708400359   9.203453980
Cu       1.845475472   0.000687715   9.199044700
Cu       3.689763373   1.708658223   9.203419099
Cu       5.534582327   0.000272220   9.198972285
Cu       0.000617344   5.117277405   9.204907696
Cu       1.845134093   3.414565190   9.205533249
Cu       3.689574631   5.116869987   9.204623000
Cu       5.534235162   3.414545002   9.205922774
Cu       0.000769713   8.513288575   9.203337581
Cu       1.845064493   6.815683678   9.202778222
Cu       3.689611478   8.512630355   9.204286090
Cu       5.534181451   6.815721637   9.203187045
Cu       0.001028461  11.915841211   9.206068764
Cu       1.845347432  10.212438546   9.206568563
Cu       3.689996973  11.916278482   9.206997257
Cu       5.534341991  10.212537351   9.206719733
Cu       0.001256652  15.330793025   9.197638703
Cu       1.845667507  13.622685728   9.201945405
Cu       3.690054138  15.330960509   9.197993818
Cu       5.534701152  13.622950606   9.202189744
Cu       0.001151401  -0.003106480  11.035465407
Cu       1.845658357   1.706474260  11.039989657
Cu       3.689939388  -0.002562153  11.035280508
Cu       5.533862045   1.705630960  11.039389741
Cu       0.000588286   3.415406553  11.044910647
Cu       1.844993942   5.120069225  11.050161419
Cu       3.689367227   3.415984001  11.045882581
Cu       5.533712523   5.119931573  11.049880907
Cu       0.000569577   6.817524427  11.053291137
Cu       1.844620661   8.509330756  11.053703743
Cu       3.689023256   6.815095999  11.053650781
Cu       5.534217852   8.509907837  11.053090319
Cu       0.000629764  10.209255076  11.050700902
Cu       1.845117187  11.916491980  11.044763844
Cu       3.689564695  10.208745841  11.050284348
Cu       5.534671111  11.916778780  11.044760347
Cu       0.001214915  13.625571364  11.038474188
Cu       1.845619477  15.331692691  11.035381561
Cu       3.690130831  13.626840695  11.039406753
Cu       5.534881265  15.331702834  11.035763087
Cu       0.001058261   1.699842706  12.867769269
Cu       1.846466387  -0.005459826  12.873096198
Cu       3.689453203   1.698374750  12.872378671
Cu       5.533532684  -0.005264260  12.873489836
Cu       0.000549363   5.117258413  12.891100525
Cu       1.848738879   3.412272435  12.880197728
Cu       3.689276972   5.118701525  12.900594553
Cu       5.530436594   3.410763656  12.878271489
Cu       0.000478685   8.510124954  12.908477794
Cu       1.847463854   6.814104598  12.910156962
Cu       3.689039917   8.506898639  12.904373747
Cu       5.531205214   6.815032261  12.907323844
Cu       0.000631084  11.922717875  12.879004701
Cu       1.842700963  10.210725578  12.889626034
Cu       3.689493591  11.922063475  12.873536479
Cu       5.536082694  10.211187517  12.889372149
Cu       0.000736047  15.331505743  12.876499304
Cu       1.843924581  13.630664173  12.874360780
Cu       3.690335457  15.334446992  12.877104636
Cu       5.535809607  13.630525694  12.874788028
Cu       0.000673623  -0.001362329  14.686904943
Cu       1.843786390   1.696725237  14.682157158
Cu       3.690331601  -0.002251223  14.700334943
Cu       5.536171159   1.696554395  14.682391543
Cu       0.000111036   3.400803450  14.671077509
Cu       1.863941986   5.098904355  14.715962778
Cu       3.690702416   3.383222706  14.697857512
Cu       5.516221654   5.099404598  14.710668021
Cu       0.000198826   6.797272059  14.717690112
Cu       1.845708297   8.521527023  14.730263359
Cu       3.690164533   6.820001952  14.758975161
Cu       5.533216342   8.521074263  14.728732326
Cu      -0.000126199  10.229567364  14.709545700
Cu       1.841877585  11.928792224  14.684247977
Cu       3.689890111  10.230325475  14.691457468
Cu       5.537038447  11.929716196  14.684726749
Cu       0.001071647  13.632060309  14.699061045
Cu       1.846342222  15.333848674  14.693397204
Cu       3.689187601  13.626596252  14.684712232
Cu       5.533456947  15.333061909  14.694487538
C       -0.000022734   0.716442531  17.618412462
C       -0.000386846   2.134363512  17.593500356
C        1.229674128   0.007743738  17.619446743
C        1.226961246   2.843403887  17.560272707
C        2.458124363   0.717038945  17.599910485
C        2.457172622   2.135260810  17.565840134
C        3.689037994   0.006530839  17.602990981
C        3.688296634   2.849420268  17.544631122
C        4.919819520   0.717053032  17.601962021
C        4.919903657   2.135321042  17.568557283
C        6.148375288   0.007682614  17.622190849
C        6.149872876   2.843447364  17.563132598
C       -0.001295228   4.972910126  17.511389597
C       -0.001545977   6.393270343  17.475961103
C        1.225107964   4.261401980  17.516860421
C        1.230258862   7.101401826  17.521801596
C        2.453115441   4.976755702  17.514278982
C        2.440288062   6.385228695  17.558708650
C        3.687849850   4.263509658  17.530783364
C        3.686746131   7.098914675  17.970539840
O        3.679475964   7.063708628  19.384806405
C        4.922500541   4.976794758  17.518075186
C        4.934520250   6.385380095  17.560143443
C        6.150655840   4.261307213  17.520360456
C        6.144765247   7.101463429  17.523167168
C       -0.000904522   9.233636581  17.545692838
C       -0.000427585  10.658612557  17.535718925
C        1.228905550   8.527341934  17.548652209
C        1.230008760  11.370226882  17.552193693
C_h        2.463381799   9.242333643  17.574283443
C        2.460050737  10.663240513  17.568855618
C        3.687785032   8.551049021  17.617473608
C        3.688560550  11.371379489  17.592004791
C        4.912483691   9.242136175  17.574845629
C        4.917077346  10.663235482  17.568574563
C        6.147013766   8.527497233  17.549638721
C        6.147257049  11.370349668  17.551257531
C        0.000132081  13.500098414  17.575183948
C        0.000203786  14.918898526  17.609551788
C        1.230990859  12.789830433  17.574981547
C        1.229602611  15.627791142  17.612919819
C        2.459780054  13.498624583  17.606406507
C        2.459954337  14.917641841  17.614637583
C        3.688978969  12.790484564  17.608573633
C        3.689158106  15.626626950  17.626351360
C        4.918269818  13.498762291  17.609598274
C        4.918043089  14.917624705  17.620972564
C        6.147224115  12.789992636  17.575850592
C        6.148788133  15.627518431  17.618041360
K_POINTS automatic
4 2 1  0 0 0
CELL_PARAMETERS angstrom
7.378073983 0.000000000 0.0000000000
0.000000000 17.038932 0.0000000000
0.000000000 0.000000000 25.00
