&control
    calculation = 'scf'
    prefix = 'gc'
    pseudo_dir = '/home/549/hxw549/Short/pseudopotentials/'
    outdir = './'
    restart_mode = 'from_scratch'
    etot_conv_thr = 1.d-6
    forc_conv_thr = 1.d-5
/
&system
    ibrav = 0
    nat = 149
    ntyp = 4
    ecutwfc = 80
    occupations = 'smearing'
    smearing = 'gaussian'
    degauss = 0.1
    vdw_corr='grimme-d2'
    tot_charge=1
/
&electrons
    diagonalization = 'david'
    diago_thr_init = 1.d-4
    mixing_mode = 'local-TF'
    mixing_beta = 0.7
    conv_thr =  1.d-8
/	
&ions
/
ATOMIC_SPECIES
Cu 63.546 Cu.pbe-n-van_ak.UPF
C_h 12.0107 C.star1s-pbe-mt_gipaw.UPF
C   12.0107 C.pbe-mt_gipaw.UPF
H  1.007825032 H.pbe-van_ak.UPF
ATOMIC_POSITIONS angstrom
Cu       0.000783646  -0.001992654   7.367022070
Cu       1.845099279   1.704434127   7.367265650
Cu       3.689797387  -0.001497907   7.366975260
Cu       5.534498526   1.704579609   7.367287497
Cu       0.000723006   3.408571399   7.366869818
Cu       1.845317796   5.111027499   7.364623134
Cu       3.689845036   3.408352500   7.366342640
Cu       5.534327855   5.111061391   7.364494274
Cu       0.000819697   6.813431055   7.363022938
Cu       1.845452943   8.515544432   7.364013611
Cu       3.689862017   6.813317613   7.362969311
Cu       5.534320055   8.515480357   7.363928583
Cu       0.000856867  10.216961627   7.366461779
Cu       1.845410728  11.918789893   7.368609942
Cu       3.689916909  10.217101755   7.367015648
Cu       5.534379976  11.918673375   7.368628660
Cu       0.000794928  13.622602644   7.368255036
Cu       1.845377292  15.329244117   7.367047318
Cu       3.689889417  13.622290538   7.368334680
Cu       5.534281429  15.329238110   7.367239714
Cu       0.000842214   1.704363723   9.198733719
Cu       1.845316741  -0.002268658   9.196417899
Cu       3.689869099   1.704925723   9.198655286
Cu       5.534431787  -0.002233646   9.196335442
Cu       0.000866528   5.113502621   9.199072335
Cu       1.845420410   3.410068008   9.199591678
Cu       3.689964786   5.113015401   9.198804026
Cu       5.534369942   3.410161191   9.199768386
Cu       0.000947247   8.513341982   9.199290140
Cu       1.845537324   6.813700578   9.198216928
Cu       3.690059767   8.512915757   9.199636229
Cu       5.534414259   6.813706271   9.198323992
Cu       0.001016535  11.917184675   9.201942486
Cu       1.845608638  10.214030209   9.201901068
Cu       3.690061272  11.917478900   9.202873104
Cu       5.534500366  10.213937053   9.202030562
Cu       0.000875573  15.329520739   9.196382490
Cu       1.845466214  13.622966528   9.199375659
Cu       3.689935426  15.329683115   9.195804526
Cu       5.534518548  13.622916724   9.199417695
Cu       0.001031177  -0.004408780  11.034986789
Cu       1.845908701   1.703424082  11.036232319
Cu       3.689952066  -0.004210308  11.034034119
Cu       5.534113434   1.703424835  11.036225271
Cu       0.001008053   3.411398608  11.038954967
Cu       1.845820063   5.115214232  11.042796573
Cu       3.690037370   3.412068819  11.040639203
Cu       5.534384956   5.115307111  11.043012319
Cu       0.001145706   6.814313720  11.045342941
Cu       1.845424864   8.509954209  11.045982537
Cu       3.690079003   6.812787775  11.045674323
Cu       5.534987461   8.509836710  11.046131196
Cu       0.001196613  10.210739170  11.045229369
Cu       1.845644379  11.916851916  11.041971903
Cu       3.690267495  10.209444229  11.045115173
Cu       5.534942188  11.916823218  11.042032772
Cu       0.001217624  13.624149847  11.038103872
Cu       1.845255799  15.330316989  11.035488486
Cu       3.690205936  13.626163217  11.038246826
Cu       5.534941498  15.330308314  11.035610685
Cu       0.001119527   1.700993403  12.866889102
Cu       1.846546264  -0.004551665  12.872715812
Cu       3.690281547   1.698858837  12.870817777
Cu       5.533874494  -0.004512147  12.872712113
Cu       0.001125484   5.114147383  12.883582376
Cu       1.849058964   3.409080748  12.874462097
Cu       3.690436140   5.116563760  12.891218200
Cu       5.531496790   3.408931227  12.874732511
Cu       0.001185658   8.508906168  12.897285770
Cu       1.847221271   6.812457525  12.895488227
Cu       3.690354746   8.504733059  12.895346673
Cu       5.533213236   6.812580748  12.895729299
Cu       0.001321604  11.917869543  12.878483850
Cu       1.844425780  10.208572263  12.884458475
Cu       3.690430244  11.918450673  12.871701232
Cu       5.536247365  10.208559480  12.884611035
Cu       0.001219160  15.330253978  12.876662965
Cu       1.844206250  13.627246418  12.874704344
Cu       3.690336457  15.333051277  12.876716482
Cu       5.536638844  13.627254667  12.874832844
Cu       0.001265553   0.001251368  14.684015537
Cu       1.846444568   1.700178394  14.682619964
Cu       3.690657939  -0.000622841  14.697465127
Cu       5.534626020   1.699765876  14.683688544
Cu       0.001039449   3.401860033  14.673343568
Cu       1.859073612   5.102267546  14.701709697
Cu       3.691039056   3.390712536  14.694836816
Cu       5.521862270   5.102357113  14.702576071
Cu       0.000818294   6.801902742  14.712105035
Cu       1.851392458   8.512860721  14.719535922
Cu       3.690680179   6.812442869  14.750070127
Cu       5.529124766   8.513036670  14.720444533
Cu       0.000957797  10.215223585  14.708698491
Cu       1.840340459  11.920466133  14.683391309
Cu       3.690641547  10.224423970  14.691538926
Cu       5.540341050  11.920877590  14.683679940
Cu       0.001482787  13.627622756  14.696376214
Cu       1.846962461  15.332630323  14.690502940
Cu       3.690421217  13.620240463  14.680441632
Cu       5.533890658  15.332454120  14.691090833
C        0.002213242   0.721639992  17.616851424
C        0.002349108   2.139729581  17.601840379
C        1.231893764   0.013243579  17.613348476
C        1.230292604   2.848858853  17.578890778
C        2.460629830   0.722546633  17.598479584
C        2.460470808   2.140901916  17.585242953
C        3.691234109   0.011673643  17.594010822
C        3.691912535   2.855174893  17.586916386
C        4.922138314   0.722207739  17.602659510
C        4.922733258   2.140518388  17.590020969
C        6.150650506   0.012994966  17.616477353
C        6.152531001   2.848987069  17.582889407
C        0.002453195   4.978150107  17.540845065
C        0.002293628   6.397273508  17.527781561
C        1.228962927   4.266888975  17.549926369
C        1.234604186   7.105364087  17.592866418
C        2.456958728   4.983777881  17.587573077
C        2.441224914   6.389128251  17.643741427
C        3.691771155   4.269616725  17.611941409
C_h        3.690811088   7.108276163  18.025969325
H        3.686067140   7.090233414  19.153077581
C        4.926403661   4.983973857  17.591126923
C        4.941725445   6.389243658  17.649130570
C        6.154198043   4.267092326  17.554269300
C        6.148226494   7.105299434  17.596100422
C        0.002965881   9.237882638  17.611659416
C        0.002969664  10.662611449  17.571408260
C        1.232640857   8.532068094  17.628948171
C        1.233172216  11.374091170  17.568098714
C        2.468553772   9.246958458  17.630581710
C        2.464207548  10.668600607  17.591742500
C        3.692254021   8.559852071  17.687618250
C        3.692241834  11.376443328  17.602194594
C        4.916006418   9.247100628  17.634055644
C        4.920475063  10.668675886  17.595489744
C        6.151352919   8.532013476  17.633101425
C        6.150954517  11.374363108  17.571222813
C        0.002392224  13.505089571  17.564641383
C        0.001902645  14.924389219  17.597180843
C        1.233245521  12.794295290  17.570953604
C        1.231246668  15.633218870  17.602687367
C        2.461987089  13.503567062  17.594400473
C        2.461730415  14.922905080  17.597993492
C        3.691821051  12.796227661  17.599961746
C        3.690924028  15.631765627  17.605423569
C        4.921040540  13.503884389  17.596838653
C        4.920299730  14.923105474  17.601167214
C        6.149790473  12.794466553  17.572728811
C        6.150668907  15.633247245  17.606262829
K_POINTS automatic
4 2 1  0 0 0
CELL_PARAMETERS angstrom
7.378073983 0.000000000 0.0000000000
0.000000000 17.038932 0.0000000000
0.000000000 0.000000000 25.00
