&control
    calculation = 'relax'
    prefix = 'gc'
    pseudo_dir = '/home/549/hxw549/Short/pseudopotentials/'
    outdir = './'
    restart_mode = 'from_scratch'
    etot_conv_thr = 1.d-6
    forc_conv_thr = 1.d-5
    
/

&system
    ibrav = 0
    nat = 156
    ntyp = 2
    ecutwfc = 80
    ecutrho = 180
    occupations = 'smearing'
    smearing = 'gaussian'
    degauss = 0.1
    vdw_corr='grimme-d2'
/

&electrons
    diagonalization = 'david'
    diago_thr_init = 1.d-4
    mixing_mode = 'local-TF'
    mixing_beta = 0.7
    conv_thr =  1.d-8
    	

/	

&ions
    
/


ATOMIC_SPECIES
Cu 63.546 Cu.pbe-n-van_ak.UPF
C   12.0107 C.pbe-mt_gipaw.UPF



ATOMIC_POSITIONS angstrom
Cu       0.000070579   0.011761227   6.443719323
Cu       1.844491007   1.720827066   6.456855593
Cu       3.688918860   0.011929864   6.443858319
Cu       5.533540182   1.723345230   6.456144591
Cu      -0.000651458   3.428295807   6.478936859
Cu       1.844508043   5.128714255   6.489575181
Cu       3.689640874   3.428153371   6.478774577
Cu       5.533523127   5.128325340   6.487846560
Cu       0.000884649   6.823667701   6.482385843
Cu       1.844529822   8.516344171   6.485497360
Cu       3.688105878   6.823707663   6.482507390
Cu       5.533499171   8.516598641   6.482851929
Cu      -0.000764122  10.212177445   6.491405273
Cu       1.844502922  11.915092661   6.479812799
Cu       3.689758655  10.212035048   6.491476875
Cu       5.533524656  11.913346553   6.478363282
Cu       0.000460809  13.619970383   6.454738854
Cu       1.844491755  15.329038276   6.441317232
Cu       3.688531640  13.619994319   6.454869050
Cu       5.533528319  15.329492929   6.444372349
Cu       0.000209396   1.713354904   8.287629883
Cu       1.844491646   0.005460547   8.265203858
Cu       3.688792006   1.713430055   8.287751831
Cu       5.533550440   0.006886960   8.265953158
Cu      -0.000670957   5.136353663   8.322349590
Cu       1.844489871   3.427589676   8.303436353
Cu       3.689662243   5.135962902   8.322287241
Cu       5.533542633   3.426239291   8.302953852
Cu      -0.000339151   8.509196132   8.349780620
Cu       1.844469002   6.829420291   8.351701413
Cu       3.689326656   8.509359898   8.350338051
Cu       5.533542824   6.828709025   8.352192810
Cu       0.000404086  11.914368079   8.305584520
Cu       1.844373234  10.204825666   8.320510443
Cu       3.688585642  11.914589783   8.305423857
Cu       5.533644717  10.205795197   8.321712433
Cu      -0.000445510  15.335759146   8.265123078
Cu       1.844512930  13.629294610   8.288338931
Cu       3.689442662  15.335753172   8.264952488
Cu       5.533515797  13.627144690   8.288254838
Cu      -0.000999237  -0.002711546  10.111250299
Cu       1.844396414   1.700132070  10.124159306
Cu       3.690008293  -0.003253952  10.110988711
Cu       5.533631765   1.698045057  10.127023302
Cu      -0.000734679   3.403092215  10.143367057
Cu       1.844368909   5.109407610  10.181189656
Cu       3.689719032   3.403340245  10.144030835
Cu       5.533624883   5.106463998  10.183563026
Cu      -0.000199766   6.816048597  10.224878382
Cu       1.844206393   8.525501121  10.223723693
Cu       3.689153713   6.815457590  10.224226946
Cu       5.533773076   8.526189201  10.224312412
Cu      -0.000073349  10.230706646  10.179897312
Cu       1.844384074  11.936431812  10.142607488
Cu       3.689037230  10.231475790  10.179346842
Cu       5.533611647  11.936471093  10.142436653
Cu      -0.000918006  13.641998475  10.126472638
Cu       1.844550203  15.344662910  10.111207946
Cu       3.689903927  13.641811117  10.126562744
Cu       5.533501658  15.343231255  10.113458447
Cu      -0.001813501   1.683632651  11.974497746
Cu       1.844329331  -0.009758215  11.966933112
Cu       3.690794710   1.682222411  11.973204966
Cu       5.533676147  -0.011884842  11.967924444
Cu       0.000923547   5.051155754  12.048438249
Cu       1.844515350   3.381998169  11.995170863
Cu       3.688015808   5.052071516  12.049697892
Cu       5.533485850   3.377830504  11.993429050
Cu       0.002590012   8.574332486  12.070384515
Cu       1.843901443   6.767947178  12.064572764
Cu       3.686392763   8.573889446  12.066097720
Cu       5.534194220   6.766710169  12.070943106
Cu      -0.002252886  11.963138476  11.990422377
Cu       1.843626909  10.285950484  12.048535271
Cu       3.691228099  11.963425112  11.990161658
Cu       5.534380684  10.295519260  12.046219952
Cu      -0.001714899  15.350453286  11.967923684
Cu       1.844648561  13.655076634  11.971749356
Cu       3.690687405  15.350582300  11.967663239
Cu       5.533357192  13.657697489  11.974330940
Cu       0.000389723  -0.010936450  13.830487159
Cu       1.844470136   1.648598105  13.826057283
Cu       3.688572843  -0.011651391  13.830398813
Cu       5.533513866   1.639868796  13.825529793
Cu       0.001046933   3.275712203  13.908150784
Cu       1.841733560   4.966354549  13.941701532
Cu       3.687974403   3.276022591  13.902847217
Cu       5.536338138   4.952818834  13.934353789
Cu       0.010443435   6.775448279  13.829602000
Cu       1.845776441   8.553573709  13.833498116
Cu       3.678716436   6.779850247  13.826512913
Cu       5.532373751   8.561188260  13.817872119
Cu       0.000159703  10.396042409  13.937597048
Cu       1.846636104  12.066610061  13.903362211
Cu       3.688861214  10.386976932  13.928336248
Cu       5.531339196  12.070126266  13.908723262
Cu      -0.000272679  13.694156492  13.823681686
Cu       1.844019191  15.349937031  13.829794308
Cu       3.689199488  13.696392338  13.823944872
Cu       5.533929771  15.353178858  13.831041057
Cu       1.854501385  10.228933229  15.625420944
Cu       5.523919947  10.226742861  15.630966308
Cu      -0.000903951   8.523875231  15.589398132
Cu       1.840349889   6.834836856  15.617707292
Cu       3.689700873   8.510438374  15.603817241
Cu       5.537314250   6.828226147  15.592790848
Cu       0.001587565   5.113987525  15.642433942
Cu       3.687439459   5.117812681  15.625965963
C 0.000050039 0.703874055 18.4883
C 0.000029405 2.121935627 18.4062
C 1.229659262 -0.006944322 18.5107
C 1.229970047 2.829577806 18.3582
C 2.459331038 0.703396824 18.4901
C 2.459411473 2.120853888 18.4057
C 3.689064029 -0.007509554 18.5037
C 3.689079200 2.827344824 18.3524
C 4.918856458 0.703424334 18.4909
C 4.918751925 2.120853598 18.4059
C 6.148471924 -0.006938801 18.5108
C 6.148147029 2.829574714 18.3577
C 0.000028829 4.958133192 18.2308
C -0.000015933 6.381325456 18.2039
C 1.231219475 4.246175134 18.2673
C 1.229322519 7.092215514 18.2136
C 2.458694171 4.956654377 18.2367
C 2.459746184 6.379580462 18.2089
C 3.689102689 4.245837452 18.2726
C 3.689214109 7.090528903 18.205
C 4.919467073 4.956776510 18.2363
C 4.918653012 6.379674771 18.21
C 6.146926694 4.246204288 18.2672
C 6.148775642 7.092114167 18.2148
C 0.000081234 9.226311385 18.224
C 0.000089899 10.647747493 18.2554
C 1.229636069 8.514611283 18.2149
C 1.228255444 11.358031351 18.2884
C 2.458706511 9.224910842 18.2076
C 2.459894298 10.647058532 18.2484
C 3.689130492 8.512459326 18.2079
C 3.689090490 11.357880252 18.2802
C 4.919543641 9.224834555 18.2071
C 4.918358520 10.647074667 18.2478
C 6.148664761 8.514401922 18.214
C 6.149960002 11.358042727 18.2888
C 0.000056265 13.482862924 18.4293
C 0.000023171 14.901003359 18.5074
C 1.229408270 12.775150109 18.3748
C 1.229768335 15.611515211 18.5159
C 2.459387135 13.481851102 18.4275
C 2.459437618 14.900521330 18.503
C 3.689073814 12.773464715 18.378
C 3.689093112 15.611144123 18.5171
C 4.918785055 13.481881195 18.4272
C 4.918678223 14.900554657 18.5027
C 6.148731109 12.775143077 18.3754
C 6.148426659 15.611520493 18.5157

K_POINTS automatic
4 2 1  0 0 0

CELL_PARAMETERS angstrom
7.378073983 0.000000000 0.0000000000
0.000000000 17.038932 0.0000000000
0.000000000 0.000000000 25.00
