&control
    calculation = 'scf'
    prefix = 'gc'
    pseudo_dir = '/home/549/hxw549/Short/pseudopotentials/'
    outdir = './'
    restart_mode = 'from_scratch'
    etot_conv_thr = 1.d-6
    forc_conv_thr = 1.d-5
/
&system
    ibrav = 0
    nat = 102
    ntyp = 5
    ecutwfc = 80
    occupations = 'smearing'
    smearing = 'gaussian'
    degauss = 0.1
    vdw_corr='grimme-d2'
    tot_charge=1
/
&electrons
    diagonalization = 'david'
    diago_thr_init = 1.d-4
    mixing_mode = 'local-TF'
    mixing_beta = 0.7
    conv_thr =  1.d-8
/	
&ions
/
ATOMIC_SPECIES
Cu 63.546 Cu.pbe-n-van_ak.UPF
C_h 12.0107 C.star1s-pbe-mt_gipaw.UPF
C   12.0107 C.pbe-mt_gipaw.UPF
O   15.9994 O.pbe-van_gipaw.UPF
H  1.007825032 H.pbe-van_ak.UPF
ATOMIC_POSITIONS angstrom
Cu       0.000587398  -0.007520875   7.375647276
Cu       1.845002120   1.698820142   7.376650258
Cu       3.689613621  -0.007283005   7.375931383
Cu       5.534237643   1.698768645   7.376641980
Cu       0.000579213   3.403410149   7.376059206
Cu       1.844991448   5.106141509   7.373499748
Cu       3.689637783   3.403444808   7.375494457
Cu       5.534282576   5.106184034   7.373545053
Cu       0.000612848   6.807376053   7.372364305
Cu       1.845316712   8.507377799   7.373978020
Cu       3.689644123   6.807005797   7.372468013
Cu       5.533989434   8.507387588   7.373958985
Cu       0.000617489  10.208007531   7.376103534
Cu       1.844979136  11.911425686   7.376633910
Cu       3.689658202  10.208560296   7.376396135
Cu       5.534317216  11.911398776   7.376627992
Cu       0.000587771  13.617229668   7.375552880
Cu       1.845253700  15.324273689   7.374853573
Cu       3.689647926  13.616853631   7.375306242
Cu       5.533998788  15.324277547   7.374897954
Cu       0.000562123   1.697606329   9.206375154
Cu       1.845071423  -0.008232834   9.204297760
Cu       3.689607980   1.698439942   9.205911884
Cu       5.534128091  -0.008171829   9.204364889
Cu       0.000583405   5.107111071   9.208041758
Cu       1.845041084   3.403873762   9.207316457
Cu       3.689613033   5.106465497   9.207818653
Cu       5.534177229   3.403845396   9.207261792
Cu       0.000584669   8.505933449   9.209644087
Cu       1.845084713   6.806421228   9.208895693
Cu       3.689635188   8.505787991   9.209555810
Cu       5.534165363   6.806429208   9.208934379
Cu       0.000587064  11.913109095   9.206708797
Cu       1.845093692  10.208244241   9.208962592
Cu       3.689646453  11.913694945   9.207029764
Cu       5.534179019  10.208216166   9.209022600
Cu       0.000555212  15.325458510   9.202962293
Cu       1.845106461  13.619568995   9.204002769
Cu       3.689618512  15.324939359   9.202947683
Cu       5.534135385  13.619541300   9.204040168
Cu       0.000543335  -0.010444999  11.043503671
Cu       1.845295997   1.695520306  11.042818751
Cu       3.689592215  -0.009644307  11.041414669
Cu       5.533880291   1.695625027  11.042982019
Cu       0.000527628   3.402010422  11.044757776
Cu       1.845173983   5.105106291  11.050454310
Cu       3.689603408   3.401438886  11.045940826
Cu       5.533980643   5.105049145  11.050435353
Cu       0.000538647   6.805895624  11.053684311
Cu       1.844435254   8.506656349  11.051130849
Cu       3.689560290   6.804969270  11.052762878
Cu       5.534695530   8.506619572  11.051240637
Cu       0.000568178  10.210944612  11.047620638
Cu       1.844909692  11.917813515  11.043279999
Cu       3.689546175  10.211224427  11.046241675
Cu       5.534281132  11.917814122  11.043284895
Cu       0.000540603  13.623368921  11.041068821
Cu       1.845139908  15.326071494  11.042272546
Cu       3.689621111  13.623705109  11.042554498
Cu       5.534030383  15.326111820  11.042270443
Cu       0.000470359   1.695297576  12.875835420
Cu       1.845773290  -0.010599523  12.880446713
Cu       3.689659930   1.690662005  12.879688504
Cu       5.533425426  -0.010642144  12.880516144
Cu       0.000444191   5.099007969  12.887945247
Cu       1.847632612   3.396324320  12.880875658
Cu       3.689573478   5.101583546  12.891384976
Cu       5.531491010   3.396521354  12.881280056
Cu       0.000530794   8.511165585  12.892940108
Cu       1.844571556   6.805672565  12.894081042
Cu       3.689398303   8.511118609  12.886320329
Cu       5.534406513   6.805434970  12.894063220
Cu       0.000470719  11.923507365  12.878447660
Cu       1.842548414  10.216549082  12.881136467
Cu       3.689502366  11.920360811  12.875767144
Cu       5.536404567  10.216691312  12.880962247
Cu       0.000568268  15.323851797  12.884053743
Cu       1.844480801  13.624775051  12.880235763
Cu       3.689569031  15.328669759  12.883363668
Cu       5.534641090  13.624817080  12.880239840
Cu       0.000540294  -0.003566289  14.689663766
Cu       1.845860304   1.693203119  14.691632402
Cu       3.689672592  -0.009977012  14.705199783
Cu       5.533345229   1.693047529  14.692054010
Cu       0.000420681   3.394256196  14.692026698
Cu       1.855220494   5.092276290  14.699196298
Cu       3.689674063   3.384813321  14.703610292
Cu       5.523714219   5.092545686  14.700290985
Cu       0.000318640   6.792992402  14.703384363
Cu       1.835422562   8.519770659  14.699353128
Cu       3.689497655   6.817814113  14.706452969
Cu       5.543457988   8.519703052  14.698676708
Cu       0.000222787  10.231059586  14.701590480
Cu       1.847396334  11.920927993  14.691850484
Cu       3.689569730  10.219239591  14.689658444
Cu       5.531450995  11.921106139  14.691953894
Cu       0.000549479  13.618436358  14.705457666
Cu       1.841641928  15.326000881  14.698397006
Cu       3.689438115  13.621884439  14.690277677
Cu       5.537520404  15.325873983  14.698433424
C_h        3.554406602   7.045132642  25
O        2.806664418   7.925669507  25
K_POINTS automatic
4 2 1  0 0 0
CELL_PARAMETERS angstrom
7.378073983 0.000000000 0.0000000000
0.000000000 17.038932 0.0000000000
0.000000000 0.000000000 25.00
