&control
    calculation = 'scf'
    prefix = 'gc'
    pseudo_dir = '/home/549/hxw549/Short/pseudopotentials/'
    outdir = './'
    restart_mode = 'from_scratch'
    etot_conv_thr = 1.d-6
    forc_conv_thr = 1.d-5
    
/

&system
    ibrav = 0
    nat = 151
    ntyp = 4
    ecutwfc = 80
    occupations = 'smearing'
    smearing = 'gaussian'
    degauss = 0.1
    vdw_corr='grimme-d2'
    tot_charge=1
/

&electrons
    diagonalization = 'david'
    diago_thr_init = 1.d-4
    mixing_mode = 'local-TF'
    mixing_beta = 0.7
    conv_thr =  1.d-8
    	

/	

&ions
    
/


ATOMIC_SPECIES
Cu 63.546 Cu.pbe-n-van_ak.UPF
C_h 12.0107 C.star1s-pbe-mt_gipaw.UPF
C   12.0107 C.pbe-mt_gipaw.UPF
H  1.007825032 H.pbe-van_ak.UPF


ATOMIC_POSITIONS angstrom
Cu       0.017486539   0.004081108   7.313718529
Cu       1.861446345   1.695579372   7.323957857
Cu       3.707700291   0.001102722   7.315227075
Cu       5.551272674   1.696785254   7.322237418
Cu       0.018721929   3.395101668   7.324022361
Cu       1.867411745   5.102320117   7.323309469
Cu       3.708852630   3.392983249   7.327591197
Cu       5.554895107   5.102532731   7.321969351
Cu       0.024557330   6.813892873   7.314672240
Cu       1.871417572   8.522879909   7.316295647
Cu       3.711990392   6.815618800   7.320442327
Cu       5.557507669   8.521609674   7.317995820
Cu       0.023039906  10.235257131   7.306322518
Cu       1.867888377  11.948260157   7.304105185
Cu       3.715398877  10.237952654   7.318729182
Cu       5.556227485  11.950154110   7.301431354
Cu       0.023427715  13.648002646   7.305758511
Cu       1.864557821  15.349167606   7.304633671
Cu       3.708438792  13.653799802   7.294978370
Cu       5.552607048  15.347535256   7.309266563
Cu       0.021923541   1.692799328   9.157718128
Cu       1.867228583  -0.004797556   9.155617914
Cu       3.712070055   1.692757782   9.158098914
Cu       5.555897766  -0.001758309   9.159076634
Cu       0.027648883   5.102138926   9.140202744
Cu       1.869978903   3.393841142   9.150724809
Cu       3.714642778   5.102447788   9.142999948
Cu       5.556950894   3.389632183   9.143588651
Cu       0.032477087   8.535306440   9.124010975
Cu       1.874007498   6.815075588   9.139863609
Cu       3.719266131   8.528926954   9.143066954
Cu       5.566606303   6.811787061   9.144363917
Cu       0.030662932  11.947543517   9.140063882
Cu       1.871721543  10.246889931   9.125781908
Cu       3.715574078  11.961094356   9.122452654
Cu       5.567349090  10.251425796   9.122994187
Cu       0.024186478  15.342646218   9.155360434
Cu       1.868052382  13.647218601   9.147675195
Cu       3.714379855  15.340746449   9.148681631
Cu       5.563092661  13.647490682   9.142861850
Cu       0.028543446  -0.009787713  11.008169169
Cu       1.875251466   1.679588810  10.988952116
Cu       3.724144712  -0.004485892  11.005044815
Cu       5.568471820   1.690835890  11.000420054
Cu       0.029330807   3.386692737  10.986425989
Cu       1.880163187   5.098499813  10.977455947
Cu       3.724238901   3.393079474  10.990589370
Cu       5.573325628   5.090214671  10.973708197
Cu       0.052337346   6.826710641  10.961946865
Cu       1.877656291   8.546106270  10.960421418
Cu       3.727917596   6.806848179  10.965581135
Cu       5.591743073   8.554331086  10.941160211
Cu       0.045530108  10.246428477  10.982197955
Cu       1.872464814  11.947776807  10.985779701
Cu       3.726949091  10.282673131  10.932690945
Cu       5.584100487  11.953498632  10.981272354
Cu       0.037105609  13.652667619  10.999595563
Cu       1.876480046  15.342265714  11.004232292
Cu       3.724139865  13.644072323  10.993664858
Cu       5.566014921  15.340089747  11.007827327
Cu       0.035350268   1.701565974  12.839461225
Cu       1.882117929   0.001059085  12.858318311
Cu       3.731481803   1.684955793  12.846539389
Cu       5.578624196  -0.000671034  12.854418693
Cu       0.039635493   5.087987514  12.805265127
Cu       1.894045328   3.376493957  12.799540341
Cu       3.744453897   5.129147592  12.844455628
Cu       5.560111653   3.390844585  12.835393934
Cu       0.088686836   8.550620414  12.841511330
Cu       1.906138815   6.812437008  12.798571960
Cu       3.742452013   8.582544504  12.696956118
Cu       5.646904112   6.852429798  12.715357533
Cu       0.055898566  11.938996624  12.830733851
Cu       1.911768613  10.246249812  12.825033053
Cu       3.752872634  11.942346371  12.818995339
Cu       5.604235614  10.231240847  12.803979675
Cu       0.045886537  15.338505607  12.861966736
Cu       1.894659390  13.639636000  12.835913728
Cu       3.731787590  15.344666008  12.852670032
Cu       5.588526742  13.640175285  12.846792912
Cu       0.060567931   0.027946074  14.666877872
Cu       1.902033395   1.720162078  14.681566971
Cu       3.719360498  -0.005615394  14.686893042
Cu       5.552328323   1.685924878  14.687404921
Cu       0.015503271   3.352615739  14.707222814
Cu       1.809739681   5.043548559  14.567461928
Cu       3.731617264   3.396250991  14.665340568
Cu       5.605432691   5.072568292  14.640663371
Cu      -0.014961047   6.808041994  14.611936088
Cu       1.961807188   8.491160986  14.614897911
Cu       4.084343854   7.025719728  14.500701923
Cu       5.765369633   8.704398940  14.739776003
Cu       0.203309632  10.294439653  14.704764151
Cu       1.966207201  11.980848389  14.659677792
Cu       3.754861814  10.226661695  14.622459934
Cu       5.611102360  11.891766894  14.646447498
Cu       0.044253072  13.610754206  14.665899826
Cu       1.885231656  15.316119202  14.667481160
Cu       3.786857320  13.641761481  14.649979686
Cu       5.603954351  15.358280478  14.671874828
C       -0.076561344   0.696767674  17.626898486
C       -0.077619216   2.113590232  17.754294324
C        1.152971041  -0.015727246  17.596043599
C        1.148450930   2.819087331  17.870712554
C        2.380299112   0.697068132  17.636912718
C        2.378235817   2.112067527  17.772401033
C        3.611760287  -0.014372016  17.576055894
C        3.608284792   2.826246857  17.815098108
C        4.843515543   0.698878058  17.610412220
C        4.840854628   2.116211494  17.724713719
C        6.072047345  -0.013876141  17.574138319
C        6.071332857   2.821611267  17.811224265
C       -0.083648504   4.944753769  18.061448006
C       -0.090205403   6.366989203  18.105189750
C        1.145646556   4.227882775  18.065805312
C        1.137283146   7.081451824  18.163018552
C        2.370669651   4.937867081  18.149457376
C        2.349904871   6.353801017  18.181311401
C        3.603790764   4.235067741  17.963179281
C_h        3.561753469   7.050937015  17.629872558
C        3.110873928   6.816419807  16.122023697
H        3.028435821   5.704576890  15.978225833
H        2.064441188   7.203620065  16.070633540
C        4.842116513   4.949255704  17.938158298
C        4.852349523   6.353593234  17.881138202
C        6.072180798   4.235750094  17.946670616
C        6.057956890   7.069458556  17.932978096
C       -0.080268149   9.199452752  17.786544605
C       -0.078104292  10.622301300  17.652633458
C        1.144156326   8.499244455  17.942458897
C        1.150684597  11.337095280  17.645350913
C        2.379615008   9.215800969  17.842222085
C        2.379269861  10.632152706  17.722149762
C        3.602000221   8.523258402  17.808934371
C        3.608957422  11.335758927  17.648259285
C        4.827973060   9.205370048  17.741085556
C        4.836772481  10.627470435  17.666405821
C        6.067055850   8.492541529  17.794256393
C        6.068208396  11.331912266  17.597414391
C       -0.076577632  13.466342795  17.524951129
C       -0.074941495  14.888678502  17.528884177
C        1.154085020  12.756487652  17.567673247
C        1.154065019  15.601291567  17.540560069
C        2.383940435  13.467077240  17.574097602
C        2.385340713  14.889147511  17.552941849
C        3.611564216  12.756822194  17.589776120
C        3.614108282  15.601805096  17.559545599
C        4.840901175  13.466131473  17.552175330
C        4.842179244  14.888993220  17.540008837
C        6.069785350  12.753049293  17.538051281
C        6.073595216  15.602132249  17.528473835

K_POINTS automatic
4 2 1  0 0 0

CELL_PARAMETERS angstrom
7.378073983 0.000000000 0.0000000000
0.000000000 17.038932 0.0000000000
0.000000000 0.000000000 25.00
