&BANDS
  prefix="graphene"
  outdir="."
  filband="bands.dat"
  lsym=.true.
/

