&control
    calculation = 'bands'
    prefix = 'graphene'
    pseudo_dir = '/home/549/hxw549/Short/pseudopotentials'
    outdir = './'
    restart_mode = 'from_scratch'
    etot_conv_thr = 1.d-6
    forc_conv_thr = 1.d-5
    wf_collect = .true.
    verbosity='high'
/

&system
    ibrav = 0
    nat = 4
    ntyp = 1
    ecutwfc = 80
    occupations = 'smearing'
    smearing = 'gaussian'
    degauss = 0.1
    vdw_corr='grimme-d2'
/

&electrons
    diagonalization = 'david'
    diago_thr_init = 1.d-4
    mixing_mode = 'local-TF'
    mixing_beta = 0.7
    conv_thr =  1.d-10
/	


ATOMIC_SPECIES
C 12.0107 C.pbe-mt_gipaw.UPF

ATOMIC_POSITIONS crystal
C        0.000000000   0.166661809   0.500000000
C        0.000000000   0.500004864   0.500000000
C        0.500000000   0.000002252   0.500000000
C        0.500000000   0.666664410   0.500000000

CELL_PARAMETERS angstrom
2.459512147 0.000000000 0.0000000000
0 4.26 0.0000000000
0.000000000 0.000000000 10.0000000000


K_POINTS crystal
120
0 0.000 0 1
0.00833333 0.025 0 1
0.0166667 0.050 0 1
0.025 0.075 0 1
0.0333333 0.100 0 1
0.0416667 0.125 0 1
0.05 0.150 0 1
0.0583333 0.175 0 1
0.0666667 0.200 0 1
0.075 0.225 0 1
0.0833333 0.250 0 1
0.0916667 0.275 0 1
0.1 0.300 0 1
0.108333 0.325 0 1
0.116667 0.350 0 1
0.125 0.375 0 1
0.133333 0.400 0 1
0.141667 0.425 0 1
0.15 0.450 0 1
0.158333 0.475 0 1
0.166667 0.500 0 1
0.175 0.525 0 1
0.183333 0.550 0 1
0.191667 0.575 0 1
0.2 0.600 0 1
0.208333 0.625 0 1
0.216667 0.650 0 1
0.225 0.675 0 1
0.233333 0.700 0 1
0.241667 0.725 0 1
0.25 0.750 0 1
0.258333 0.775 0 1
0.266667 0.800 0 1
0.275 0.825 0 1
0.283333 0.850 0 1
0.291667 0.875 0 1
0.3 0.900 0 1
0.308333 0.925 0 1
0.316667 0.950 0 1
0.325 0.975 0 1
0.333333 1.000 0 1
0.325 1 0 1
0.316667 1 0 1
0.308333 1 0 1
0.3 1 0 1
0.291667 1 0 1
0.283333 1 0 1
0.275 1 0 1
0.266667 1 0 1
0.258333 1 0 1
0.25 1 0 1
0.241667 1 0 1
0.233333 1 0 1
0.225 1 0 1
0.216667 1 0 1
0.208333 1 0 1
0.2 1 0 1
0.191667 1 0 1
0.183333 1 0 1
0.175 1 0 1
0.166667 1 0 1
0.158333 1 0 1
0.15 1 0 1
0.141667 1 0 1
0.133333 1 0 1
0.125 1 0 1
0.116667 1 0 1
0.108333 1 0 1
0.1 1 0 1
0.0916667 1 0 1
0.0833333 1 0 1
0.075 1 0 1
0.0666667 1 0 1
0.0583333 1 0 1
0.05 1 0 1
0.0416667 1 0 1
0.0333333 1 0 1
0.025 1 0 1
0.0166667 1 0 1
0.00833333 1 0 1
0 1.000 0 1
0 0.975 0 1
0 0.950 0 1
0 0.925 0 1
0 0.900 0 1
0 0.875 0 1
0 0.850 0 1
0 0.825 0 1
0 0.800 0 1
0 0.775 0 1
0 0.750 0 1
0 0.725 0 1
0 0.700 0 1
0 0.675 0 1
0 0.650 0 1
0 0.625 0 1
0 0.600 0 1
0 0.575 0 1
0 0.550 0 1
0 0.525 0 1
0 0.500 0 1
0 0.475 0 1
0 0.450 0 1
0 0.425 0 1
0 0.400 0 1
0 0.375 0 1
0 0.350 0 1
0 0.325 0 1
0 0.300 0 1
0 0.275 0 1
0 0.250 0 1
0 0.225 0 1
0 0.200 0 1
0 0.175 0 1
0 0.150 0 1
0 0.125 0 1
0 0.100 0 1
0 0.075 0 1
0 0.050 0 1
0 0.025 0 1
0 0.000 0 1


