&control
    calculation = 'bands'
    prefix = 'graphene'
    pseudo_dir = '/home/549/hxw549/Short/pseudopotentials'
    outdir = './'
    restart_mode = 'from_scratch'
    etot_conv_thr = 1.d-6
    forc_conv_thr = 1.d-5
    wf_collect = .true.
    verbosity='high'
/

&system
    ibrav = 0 
    nat = 48
    ntyp = 1
    ecutwfc = 80
    occupations = 'smearing'
    smearing = 'gaussian'
    degauss = 0.1
    vdw_corr='grimme-d2'
/

&electrons
    diagonalization = 'david'
    diago_thr_init = 1.d-4
    mixing_mode = 'local-TF'
    mixing_beta = 0.7
    conv_thr =  1.d-10
/	

&ions

/


ATOMIC_SPECIES
C   12.0107 C.pbe-mt_gipaw.UPF

ATOMIC_POSITIONS crystal
C 0.000000000 0.710480657 5.02539
C 0.000000000 2.129994783 5.03412
C 1.229425460 0.000320977 5.01769
C 1.228375583 2.839795767 5.02382
C 2.457811762 0.709899315 5.0042
C 2.457842752 2.129775886 5.00174
C 3.689036991 -0.000603345 4.99352
C 3.689036991 2.840024919 4.99109
C 4.920262220 0.709899315 5.0042
C 4.920231230 2.129775886 5.00174
C 6.148648523 0.000320977 5.01769
C 6.149698400 2.839795767 5.02382
C 0.000000000 4.969253366 5.02807
C 0.000000000 6.388967846 5.01217
C 1.228271187 4.259528860 5.02094
C 1.230240519 7.099286667 5.01166
C 2.458443888 4.969859069 5.00264
C 2.458397003 6.389808595 5.00862
C 3.689036991 4.259867347 4.99557
C 3.689036991 7.100201309 5.00469
C 4.919630094 4.969859069 5.00264
C 4.919676979 6.389808595 5.00862
C 6.149802796 4.259528860 5.02094
C 6.147833464 7.099286667 5.01166
C 0.000000000 9.229134521 4.99869
C 0.000000000 10.648995568 4.98997
C 1.230190473 8.519246232 5.00386
C 1.231355762 11.359359108 5.002
C 2.460657871 9.229717785 5.01807
C 2.460488616 10.649481002 5.02371
C 3.689036991 8.520001451 5.02291
C 3.689036991 11.359355542 5.03465
C 4.917416111 9.229717785 5.01807
C 4.917585366 10.649481002 5.02371
C 6.147883510 8.519246232 5.00386
C 6.146718221 11.359359108 5.002
C 0.000000000 13.489708798 4.99082
C 0.000000000 14.909574070 5.00659
C 1.231370325 12.779202422 5.00313
C 1.229324681 15.619367815 5.00802
C 2.459963907 13.488866414 5.02043
C 2.460109581 14.908699225 5.01114
C 3.689036991 12.778795233 5.0302
C 3.689036991 15.618463298 5.01161
C 4.918110075 13.488866414 5.02043
C 4.917964401 14.908699225 5.01114
C 6.146703658 12.779202422 5.00313
C 6.148749302 15.619367815 5.00802

CELL_PARAMETERS angstrom
7.378073983 0.000000000 0.0000000000
0.000000000 17.038932 0.0000000000
0.000000000 0.000000000 10.00

K_POINTS crystal
120
0 0.000 0 1
0.00833333 0.025 0 1
0.0166667 0.050 0 1
0.025 0.075 0 1
0.0333333 0.100 0 1
0.0416667 0.125 0 1
0.05 0.150 0 1
0.0583333 0.175 0 1
0.0666667 0.200 0 1
0.075 0.225 0 1
0.0833333 0.250 0 1
0.0916667 0.275 0 1
0.1 0.300 0 1
0.108333 0.325 0 1
0.116667 0.350 0 1
0.125 0.375 0 1
0.133333 0.400 0 1
0.141667 0.425 0 1
0.15 0.450 0 1
0.158333 0.475 0 1
0.166667 0.500 0 1
0.175 0.525 0 1
0.183333 0.550 0 1
0.191667 0.575 0 1
0.2 0.600 0 1
0.208333 0.625 0 1
0.216667 0.650 0 1
0.225 0.675 0 1
0.233333 0.700 0 1
0.241667 0.725 0 1
0.25 0.750 0 1
0.258333 0.775 0 1
0.266667 0.800 0 1
0.275 0.825 0 1
0.283333 0.850 0 1
0.291667 0.875 0 1
0.3 0.900 0 1
0.308333 0.925 0 1
0.316667 0.950 0 1
0.325 0.975 0 1
0.333333 1.000 0 1
0.325 1 0 1
0.316667 1 0 1
0.308333 1 0 1
0.3 1 0 1
0.291667 1 0 1
0.283333 1 0 1
0.275 1 0 1
0.266667 1 0 1
0.258333 1 0 1
0.25 1 0 1
0.241667 1 0 1
0.233333 1 0 1
0.225 1 0 1
0.216667 1 0 1
0.208333 1 0 1
0.2 1 0 1
0.191667 1 0 1
0.183333 1 0 1
0.175 1 0 1
0.166667 1 0 1
0.158333 1 0 1
0.15 1 0 1
0.141667 1 0 1
0.133333 1 0 1
0.125 1 0 1
0.116667 1 0 1
0.108333 1 0 1
0.1 1 0 1
0.0916667 1 0 1
0.0833333 1 0 1
0.075 1 0 1
0.0666667 1 0 1
0.0583333 1 0 1
0.05 1 0 1
0.0416667 1 0 1
0.0333333 1 0 1
0.025 1 0 1
0.0166667 1 0 1
0.00833333 1 0 1
0 1.000 0 1
0 0.975 0 1
0 0.950 0 1
0 0.925 0 1
0 0.900 0 1
0 0.875 0 1
0 0.850 0 1
0 0.825 0 1
0 0.800 0 1
0 0.775 0 1
0 0.750 0 1
0 0.725 0 1
0 0.700 0 1
0 0.675 0 1
0 0.650 0 1
0 0.625 0 1
0 0.600 0 1
0 0.575 0 1
0 0.550 0 1
0 0.525 0 1
0 0.500 0 1
0 0.475 0 1
0 0.450 0 1
0 0.425 0 1
0 0.400 0 1
0 0.375 0 1
0 0.350 0 1
0 0.325 0 1
0 0.300 0 1
0 0.275 0 1
0 0.250 0 1
0 0.225 0 1
0 0.200 0 1
0 0.175 0 1
0 0.150 0 1
0 0.125 0 1
0 0.100 0 1
0 0.075 0 1
0 0.050 0 1
0 0.025 0 1
0 0.000 0 1

