&control
    calculation = 'relax'
    prefix = 'copper'
    pseudo_dir = '/home/549/hxw549/Short/pseudopotentials/'
    outdir = './'
    restart_mode = 'from_scratch'
    etot_conv_thr = 1.d-6
    forc_conv_thr = 1.d-5

/

&system
    ibrav = 0
    nat = 100
    ntyp = 1
    ecutwfc = 40
    ecutrho = 180
    occupations = 'smearing'
    smearing = 'gaussian'
    degauss = 0.1
    vdw_corr='grimme-d2'
/

&electrons
    diagonalization = 'david'
    diago_thr_init = 1.d-4
    mixing_mode = 'plain'
    mixing_beta = 0.7
    conv_thr =  1.d-8
    	

/	

&ions
    
/


ATOMIC_SPECIES
Cu 63.546 Cu.pbe-n-van_ak.UPF

ATOMIC_POSITIONS angstrom
Cu	0	0	8.895267343
Cu	1.824293348	1.824293348	8.895267343
Cu	3.648586695	0	8.895267343
Cu	5.472880043	1.824293348	8.895267343
Cu	0	3.648586695	8.895267343
Cu	1.824293348	5.472880043	8.895267343
Cu	3.648586695	3.648586695	8.895267343
Cu	5.472880043	5.472880043	8.895267343
Cu	0	7.29717339	8.895267343
Cu	1.824293348	9.121466738	8.895267343
Cu	3.648586695	7.29717339	8.895267343
Cu	5.472880043	9.121466738	8.895267343
Cu	0	10.94576009	8.895267343
Cu	1.824293348	12.77005343	8.895267343
Cu	3.648586695	10.94576009	8.895267343
Cu	5.472880043	12.77005343	8.895267343
Cu	0	14.59434678	8.895267343
Cu	1.824293348	16.41864013	8.895267343
Cu	3.648586695	14.59434678	8.895267343
Cu	5.472880043	16.41864013	8.895267343
Cu	0	1.824293348	10.6717547
Cu	1.824293348	0	10.6717547
Cu	3.648586695	1.824293348	10.6717547
Cu	5.472880043	0	10.6717547
Cu	0	5.472880043	10.6717547
Cu	1.824293348	3.648586695	10.6717547
Cu	3.648586695	5.472880043	10.6717547
Cu	5.472880043	3.648586695	10.6717547
Cu	0	9.121466738	10.6717547
Cu	1.824293348	7.29717339	10.6717547
Cu	3.648586695	9.121466738	10.6717547
Cu	5.472880043	7.29717339	10.6717547
Cu	0	12.77005343	10.6717547
Cu	1.824293348	10.94576009	10.6717547
Cu	3.648586695	12.77005343	10.6717547
Cu	5.472880043	10.94576009	10.6717547
Cu	0	16.41864013	10.6717547
Cu	1.824293348	14.59434678	10.6717547
Cu	3.648586695	16.41864013	10.6717547
Cu	5.472880043	14.59434678	10.6717547
Cu	0	0	12.5
Cu	1.824293348	1.824293348	12.5
Cu	3.648586695	0	12.5
Cu	5.472880043	1.824293348	12.5
Cu	0	3.648586695	12.5
Cu	1.824293348	5.472880043	12.5
Cu	3.648586695	3.648586695	12.5
Cu	5.472880043	5.472880043	12.5
Cu	0	7.29717339	12.5
Cu	1.824293348	9.121466738	12.5
Cu	3.648586695	7.29717339	12.5
Cu	5.472880043	9.121466738	12.5
Cu	0	10.94576009	12.5
Cu	1.824293348	12.77005343	12.5
Cu	3.648586695	10.94576009	12.5
Cu	5.472880043	12.77005343	12.5
Cu	0	14.59434678	12.5
Cu	1.824293348	16.41864013	12.5
Cu	3.648586695	14.59434678	12.5
Cu	5.472880043	16.41864013	12.5
Cu	0	1.824293348	14.32824657
Cu	1.824293348	0	14.32824657
Cu	3.648586695	1.824293348	14.32824657
Cu	5.472880043	0	14.32824657
Cu	0	5.472880043	14.32824657
Cu	1.824293348	3.648586695	14.32824657
Cu	3.648586695	5.472880043	14.32824657
Cu	5.472880043	3.648586695	14.32824657
Cu	0	9.121466738	14.32824657
Cu	1.824293348	7.29717339	14.32824657
Cu	3.648586695	9.121466738	14.32824657
Cu	5.472880043	7.29717339	14.32824657
Cu	0	12.77005343	14.32824657
Cu	1.824293348	10.94576009	14.32824657
Cu	3.648586695	12.77005343	14.32824657
Cu	5.472880043	10.94576009	14.32824657
Cu	0	16.41864013	14.32824657
Cu	1.824293348	14.59434678	14.32824657
Cu	3.648586695	16.41864013	14.32824657
Cu	5.472880043	14.59434678	14.32824657
Cu	0	0	16.10474732
Cu	1.824293348	1.824293348	16.10474732
Cu	3.648586695	0	16.10474732
Cu	5.472880043	1.824293348	16.10474732
Cu	0	3.648586695	16.10474732
Cu	1.824293348	5.472880043	16.10474732
Cu	3.648586695	3.648586695	16.10474732
Cu	5.472880043	5.472880043	16.10474732
Cu	0	7.29717339	16.10474732
Cu	1.824293348	9.121466738	16.10474732
Cu	3.648586695	7.29717339	16.10474732
Cu	5.472880043	9.121466738	16.10474732
Cu	0	10.94576009	16.10474732
Cu	1.824293348	12.77005343	16.10474732
Cu	3.648586695	10.94576009	16.10474732
Cu	5.472880043	12.77005343	16.10474732
Cu	0	14.59434678	16.10474732
Cu	1.824293348	16.41864013	16.10474732
Cu	3.648586695	14.59434678	16.10474732
Cu	5.472880043	16.41864013	16.10474732

K_POINTS automatic
2 2 1 0 0 0

CELL_PARAMETERS angstrom
7.29717339 0.000000000 0.0000000000
0.000000000 18.24293348 0.0000000000
0.000000000 0.000000000 25.000000000
