&control
    calculation = 'scf'
    prefix = 'gc'
    pseudo_dir = '/home/549/hxw549/Short/pseudopotentials/'
    outdir = './'
    restart_mode = 'from_scratch'
    etot_conv_thr = 1.d-6
    forc_conv_thr = 1.d-5
/
&system
    ibrav = 0
    nat = 136
    ntyp = 4
    ecutwfc = 80
    occupations = 'smearing'
    smearing = 'gaussian'
    degauss = 0.1
    vdw_corr='xdm_a2'
    tot_charge = 1
/
&electrons
    diagonalization = 'david'
    diago_thr_init = 1.d-4
    mixing_mode = 'local-TF'
    mixing_beta = 0.7
    conv_thr =  1.d-8
/	
&ions
/
ATOMIC_SPECIES
Cu 63.546 Cu.pbe-n-van_ak.UPF
C_h 12.0107 C.star1s-pbe-mt_gipaw.UPF
C   12.0107 C.pbe-mt_gipaw.UPF
H  1.007825032 H.pbe-van_ak.UPF
ATOMIC_POSITIONS angstrom
Cu       0.000000000  -0.011003810   7.183674237
Cu       1.844506096   1.698334063   7.202823048
Cu       3.689036991  -0.010935598   7.183405040
Cu       5.533567887   1.698334063   7.202823048
Cu       0.000000000   3.406346362   7.224726240
Cu       1.844834990   5.112448622   7.228130097
Cu       3.689036991   3.405732531   7.223431407
Cu       5.533238993   5.112448622   7.228130097
Cu       0.000000000   6.821726675   7.209843475
Cu       1.844681832   8.530951455   7.189172203
Cu       3.689036991   6.821448485   7.210915120
Cu       5.533392151   8.530951455   7.189172203
Cu       0.000000000  10.236504335   7.181390972
Cu       1.844898088  11.934533340   7.185188755
Cu       3.689036991  10.236636423   7.183279993
Cu       5.533175895  11.934533340   7.185188755
Cu       0.000000000  13.626913090   7.183451629
Cu       1.844593406  15.323040461   7.178900712
Cu       3.689036991  13.627894743   7.183647413
Cu       5.533480577  15.323040461   7.178900712
Cu       0.000000000   1.669474174   9.063980574
Cu       1.844767870  -0.028470350   9.047697207
Cu       3.689036991   1.670228283   9.064938838
Cu       5.533306113  -0.028470350   9.047697207
Cu       0.000000000   5.122439262   9.079955164
Cu       1.845526806   3.389327190   9.079136600
Cu       3.689036991   5.119384718   9.082233317
Cu       5.532547177   3.389327190   9.079136600
Cu       0.000000000   8.550418617   9.051578013
Cu       1.844580047   6.844412987   9.068817799
Cu       3.689036991   8.550830076   9.052031016
Cu       5.533493936   6.844412987   9.068817799
Cu       0.000000000  11.936998613   9.046049414
Cu       1.844991176  10.245210896   9.045206441
Cu       3.689036991  11.939264559   9.049134335
Cu       5.533082807  10.245210896   9.045206441
Cu       0.000000000  15.323073094   9.042059522
Cu       1.845349005  13.631605688   9.047166494
Cu       3.689036991  15.322122844   9.044221072
Cu       5.532724978  13.631605688   9.047166494
Cu       0.000000000  -0.041658444  10.966532162
Cu       1.846469957   1.653831540  10.962153059
Cu       3.689036991  -0.043005131  10.970053255
Cu       5.531604026   1.653831540  10.962153059
Cu       0.000000000   3.380183752  10.949966269
Cu       1.845164425   5.122124231  10.954813380
Cu       3.689036991   3.374226706  10.962980239
Cu       5.532909558   5.122124231  10.954813380
Cu       0.000000000   6.857933172  10.958746299
Cu       1.844398506   8.567458677  10.958993403
Cu       3.689036991   6.858450797  10.954738788
Cu       5.533675477   8.567458677  10.958993403
Cu       0.000000000  10.252972997  10.954140895
Cu       1.845004069  11.944116763  10.949024716
Cu       3.689036991  10.252355153  10.955525003
Cu       5.533069914  11.944116763  10.949024716
Cu       0.000000000  13.636060135  10.942720996
Cu       1.845430891  15.320528872  10.958246139
Cu       3.689036991  13.640383983  10.954266707
Cu       5.532643092  15.320528872  10.958246139
Cu       0.000000000   1.656093862  12.836121143
Cu       1.842741734  -0.045680253  12.896015539
Cu       3.689036991   1.630325662  12.866608216
Cu       5.535332249  -0.045680253  12.896015539
Cu       0.000000000   5.116447795  12.785945570
Cu       1.852201385   3.384316341  12.796308429
Cu       3.689036991   5.127294711  12.789588922
Cu       5.525872598   3.384316341  12.796308429
Cu       0.000000000   8.571494968  12.874520089
Cu       1.842358655   6.865539084  12.829194892
Cu       3.689036991   8.561937983  12.869075956
Cu       5.535715328   6.865539084  12.829194892
Cu       0.000000000  11.952110231  12.861382282
Cu       1.844349872  10.262985286  12.873821693
Cu       3.689036991  11.951486582  12.864337832
Cu       5.533724111  10.262985286  12.873821693
Cu       0.000000000  15.304355656  12.883273913
Cu       1.849446818  13.629002582  12.868575951
Cu       3.689036991  15.333698269  12.909578342
Cu       5.528627165  13.629002582  12.868575951
Cu       0.000000000  -0.026466884  14.731634496
Cu       1.849334272   1.709159858  14.662907743
Cu       3.689036991  -0.053375685  14.850924655
Cu       5.528739711   1.709159858  14.662907743
Cu       0.000000000   3.408515039  14.618128693
Cu       1.848721202   5.109414711  14.607046895
Cu       3.689036991   3.418867764  14.625793120
Cu       5.529352781   5.109414711  14.607046895
Cu       0.000000000   6.805661286  14.636339326
Cu       1.836511490   8.565486576  14.723346875
Cu       3.689036991   6.819822104  14.645772754
Cu       5.541562493   8.565486576  14.723346875
Cu       0.000000000  10.298568087  14.740843093
Cu       1.862795042  11.960804684  14.753697452
Cu       3.689036991  10.267135194  14.731285049
Cu       5.515278941  11.960804684  14.753697452
Cu       0.000000000  13.591948464  14.771146517
Cu       1.823684863  15.278189079  14.757621669
Cu       3.689036991  13.634736136  14.773477676
Cu       5.554389120  15.278189079  14.757621669
C        0.000000000   0.688161486  17.838749567
C        0.000000000   2.117785006  17.905305210
C        1.230210006   0.004568018  17.759866338
C        1.229014384   2.826820022  17.923103633
C        2.454882660   0.692366899  17.717967298
C        2.459027725   2.118953030  17.851657005
C        3.689036991   0.012069385  17.578806217
C        3.689036991   2.828261772  17.889248028
C        4.923191322   0.692366899  17.717967298
C        4.919046257   2.118953030  17.851657005
C        6.147863977   0.004568018  17.759866338
C        6.149059599   2.826820022  17.923103633
C        0.000000000   4.964194229  17.968016115
C        0.000000000   6.389488513  17.938432103
C        1.229748334   4.251410954  17.953655480
C        1.228796563   7.100419938  17.893228923
C        2.458652279   4.967053531  17.936727992
C        2.458011342   6.392189015  17.924278211
C        3.689036991   4.253794271  17.919779754
C        3.689036991   7.100890300  17.880200127
C        4.919421703   4.967053531  17.936727992
C        4.920062640   6.392189015  17.924278211
C        6.148325649   4.251410954  17.953655480
C        6.149277420   7.100419938  17.893228923
C        0.000000000   9.218910096  17.765823861
C        1.227930095   8.530022967  17.792056854
C_h        2.459329773   9.213096026  17.721955710
C        3.689036991   8.528171217  17.773344760
C        4.918744209   9.213096026  17.721955710
C        6.150143888   8.530022967  17.792056854
H        1.227461320  -1.081546631  17.716310320
H        3.689036991  -1.074657028  17.549659106
H        6.150612663  -1.081546631  17.716310320
H        0.000000000  10.306046698  17.722104386
H        2.457741858  10.297849119  17.663655231
H        4.920332124  10.297849119  17.663655231
K_POINTS automatic
4 2 1  0 0 0
CELL_PARAMETERS angstrom
7.378073983 0.000000000 0.0000000000
0.000000000 17.038932 0.0000000000
0.000000000 0.000000000 25.00
