&control
    calculation = 'relax'
    prefix = 'gc'
    pseudo_dir = '/home/549/hxw549/Short/pseudopotentials/'
    outdir = './'
    restart_mode = 'from_scratch'
    etot_conv_thr = 1.d-6
    forc_conv_thr = 1.d-5
/
&system
    ibrav = 0
    nat = 149
    ntyp = 2
    ecutwfc = 80
    occupations = 'smearing'
    smearing = 'gaussian'
    degauss = 0.1
    vdw_corr='grimme-d2'
/
&electrons
    diagonalization = 'david'
    diago_thr_init = 1.d-4
    mixing_mode = 'local-TF'
    mixing_beta = 0.7
    conv_thr =  1.d-8
/	
&ions
/
ATOMIC_SPECIES
Cu 63.546 Cu.pbe-n-van_ak.UPF
C   12.0107 C.pbe-mt_gipaw.UPF
ATOMIC_POSITIONS angstrom
Cu       0.054973638  -0.086844370   7.354030606
Cu       1.897978827   1.630499805   7.338683299
Cu       3.738599097  -0.092242419   7.347944358
Cu       5.585779356   1.630722463   7.326897240
Cu       0.055441425   3.356769727   7.327851349
Cu       1.900158975   5.085335955   7.329366600
Cu       3.741593567   3.357834954   7.323883399
Cu       5.587675850   5.077127865   7.333127451
Cu       0.052965770   6.793558131   7.340780905
Cu       1.900437021   8.485625001   7.350551802
Cu       3.747168130   6.794485320   7.343629453
Cu       5.587942657   8.496414493   7.354248891
Cu       0.056854447  10.176960995   7.359201952
Cu       1.898598545  11.863296018   7.361669073
Cu       3.741226594  10.175598886   7.355907261
Cu       5.587364709  11.860891724   7.358613408
Cu       0.056734577  13.547926166   7.372709502
Cu       1.891353286  15.242287414   7.371457696
Cu       3.739254715  13.552607774   7.363621925
Cu       5.592857895  15.244838877   7.364087384
Cu       0.066333476   1.639163375   9.153941096
Cu       1.907178479  -0.078803475   9.176307904
Cu       3.752068658   1.636265861   9.145917527
Cu       5.596211718  -0.072518738   9.169053700
Cu       0.065700135   5.068389079   9.147720223
Cu       1.909547677   3.356325038   9.138590996
Cu       3.757898591   5.069800859   9.150175799
Cu       5.599185940   3.348039244   9.138984047
Cu       0.065718457   8.487285546   9.188156189
Cu       1.912507370   6.781308045   9.176182991
Cu       3.758732053   8.485720705   9.194287657
Cu       5.599576817   6.781239626   9.168414518
Cu       0.067325125  11.861215533   9.214335674
Cu       1.910444553  10.178320835   9.197937770
Cu       3.751403452  11.867855470   9.203952358
Cu       5.599424212  10.183813792   9.204856091
Cu       0.060333904  15.253867010   9.203334105
Cu       1.907952713  13.550767379   9.217768881
Cu       3.751525304  15.252531050   9.194314349
Cu       5.596345064  13.552651766   9.202997984
Cu       0.083550888  -0.065193464  11.012703021
Cu       1.922850001   1.654731351  10.990371974
Cu       3.770999510  -0.061638961  11.001156322
Cu       5.618820447   1.642010287  10.986386297
Cu       0.080927351   3.351839705  10.983163834
Cu       1.928007194   5.042837134  10.972643515
Cu       3.772342468   3.343029393  10.973455013
Cu       5.617524531   5.052024670  10.984046848
Cu       0.069456091   6.768178675  10.998247861
Cu       1.927638178   8.493897985  11.020167462
Cu       3.786140950   6.766679494  11.001328509
Cu       5.617872479   8.482025566  11.030240984
Cu       0.081043749  10.168420188  11.065801044
Cu       1.919814403  11.852188614  11.075471995
Cu       3.771409939  10.181844770  11.052347574
Cu       5.616432042  11.869240582  11.062586494
Cu       0.080876472  13.556942913  11.060084816
Cu       1.926545670  15.263537427  11.040127527
Cu       3.765319579  13.555505843  11.055284117
Cu       5.611524090  15.264836474  11.030554933
Cu       0.101236633   1.652227367  12.826354951
Cu       1.942021177  -0.048116300  12.845859404
Cu       3.780617769   1.651111562  12.817703828
Cu       5.635717968  -0.052096112  12.841896682
Cu       0.110882200   5.073068953  12.831785404
Cu       1.943671311   3.358619420  12.831967908
Cu       3.788520767   5.046502618  12.803136924
Cu       5.632116252   3.351693765  12.816722607
Cu       0.113973528   8.434874575  12.899558489
Cu       1.938272233   6.760939005  12.743366168
Cu       3.786613753   8.460951668  12.859761075
Cu       5.657005242   6.751531054  12.838634484
Cu       0.100672366  11.860340131  12.922978865
Cu       1.942135697  10.132804818  12.941092912
Cu       3.775780481  11.854557894  12.914575561
Cu       5.635959286  10.158887787  12.897583350
Cu       0.097719849  15.271191080  12.873046229
Cu       1.940301481  13.562179287  12.905795737
Cu       3.790932177  15.283401097  12.860837400
Cu       5.626545552  13.562797555  12.895402209
Cu       0.106439007  -0.041417155  14.658178574
Cu       1.946044320   1.663697955  14.650797478
Cu       3.797199967  -0.031916981  14.659292560
Cu       5.647063621   1.660534867  14.640909050
Cu       0.116214050   3.363049218  14.628725189
Cu       2.006033632   5.007315686  14.646581732
Cu       3.811559689   3.331607324  14.635954343
Cu       5.669892848   5.040121776  14.630482955
Cu       0.198483091   6.721738816  14.794154079
Cu       2.004844017   8.456841839  14.780756653
Cu       3.865169962   6.735447188  14.674505700
Cu       5.679583667   8.427331425  14.688356035
Cu       0.107589562  10.139432153  14.736314810
Cu       1.958446353  11.853251664  14.748287071
Cu       3.826394496  10.143624951  14.728810308
Cu       5.638561550  11.861450918  14.732490867
Cu       0.100297490  13.578719979  14.723131582
Cu       1.957845137  15.295477835  14.677721402
Cu       3.799420437  13.585002869  14.701704169
Cu       5.639647967  15.296949334  14.677748262
C       -0.154963857   0.830094163  17.559389929
C       -0.157465475   2.253323626  17.546904231
C        1.075197774   0.119587930  17.569287066
C        1.071942409   2.962771011  17.560086161
C        2.304247932   0.828046475  17.540108908
C        2.301548560   2.251061059  17.544985407
C        3.535397356   0.118689643  17.520490801
C        3.529771506   2.962206285  17.548730108
C        4.765934716   0.829478219  17.525658780
C        4.762247389   2.253202749  17.536765316
C        5.995225944   0.119185601  17.563778654
C        5.990902721   2.963626619  17.547206390
C       -0.161171798   5.097495021  17.592692938
C       -0.165257848   6.522140325  17.682714408
C        1.074509925   4.387114078  17.579470214
C        1.044606325   7.238993957  17.694968860
C        2.297191838   5.083160645  17.541987409
C        2.281535534   6.544840553  17.277857562
C        3.522057677   4.388271735  17.563789253
C        3.540085066   7.241608918  17.640438000
C        2.152542569   6.691476605  15.659216252
C        4.756543160   5.099778890  17.568191802
C        4.750395505   6.525917663  17.646330876
C        5.987447482   4.391280031  17.563737611
C        5.982025215   7.230027911  17.715429918
C       -0.161547000   9.356608763  17.754633779
C       -0.157845399  10.774926283  17.717019333
C        1.061861748   8.642510310  17.766274323
C        1.073190989  11.484644376  17.717016025
C        2.296879846   9.355073426  17.754559693
C        2.300977597  10.770521173  17.761677557
C        3.530080603   8.641949087  17.751779858
C        3.529576216  11.484717237  17.765465314
C        4.756151953   9.355828137  17.768611699
C        4.757204004  10.774661351  17.758982533
C        5.985062555   8.647181730  17.740984534
C        5.988664592  11.482865562  17.699100090
C       -0.154811344  13.611730482  17.647663652
C       -0.152621788  15.030135653  17.626628082
C        1.076277162  12.903605495  17.674539185
C        1.075494552  15.739724870  17.606628883
C        2.304916831  13.613914525  17.667814712
C        2.306807198  15.031051675  17.617131745
C        3.531628379  12.902500043  17.702953146
C        3.536007755  15.739203272  17.574300304
C        4.761288058  13.611327566  17.652936534
C        4.763438883  15.028830490  17.590955737
C        5.990711187  12.902447259  17.663430141
C        5.995466390  15.738505202  17.586865054
K_POINTS automatic
4 2 1  0 0 0
CELL_PARAMETERS angstrom
7.378073983 0.000000000 0.0000000000
0.000000000 17.038932 0.0000000000
0.000000000 0.000000000 25.00
