&control
    calculation = 'scf'
    prefix = 'gc'
    pseudo_dir = '/home/549/hxw549/Short/pseudopotentials/'
    outdir = './'
    restart_mode = 'from_scratch'
    etot_conv_thr = 1.d-6
    forc_conv_thr = 1.d-5
    
/

&system
    ibrav = 0
    nat = 150
    ntyp = 4
    ecutwfc = 80
    occupations = 'smearing'
    smearing = 'gaussian'
    degauss = 0.1
    vdw_corr='grimme-d2'
    tot_charge = 1
/

&electrons
    diagonalization = 'david'
    diago_thr_init = 1.d-4
    mixing_mode = 'local-TF'
    mixing_beta = 0.7
    conv_thr =  1.d-8
    	

/	

&ions
    
/


ATOMIC_SPECIES
Cu 63.546 Cu.pbe-n-van_ak.UPF
C_h 12.0107 C.star1s-pbe-mt_gipaw.UPF
C   12.0107 C.pbe-mt_gipaw.UPF
O   15.9994 O.pbe-van_gipaw.UPF

ATOMIC_POSITIONS angstrom
Cu       0.005715123  -0.012736644   7.359142270
Cu       1.850227159   1.666070725   7.358345122
Cu       3.695500485  -0.016501099   7.353563478
Cu       5.539805089   1.670278728   7.363329569
Cu       0.006191564   3.368390018   7.367591336
Cu       1.851473444   5.089288353   7.377820778
Cu       3.695219032   3.370683551   7.371120198
Cu       5.538862959   5.088680549   7.377954259
Cu       0.004932508   6.818743516   7.379174006
Cu       1.850567684   8.548157728   7.373879538
Cu       3.695337858   6.817772646   7.382794882
Cu       5.539039728   8.547033932   7.375907768
Cu       0.005699009  10.267046897   7.364061106
Cu       1.850040937  11.971145381   7.352862450
Cu       3.695029727  10.267782518   7.363289300
Cu       5.539545958  11.972958460   7.352700108
Cu       0.007291690  13.662778059   7.348119676
Cu       1.849858068  15.349341139   7.354707955
Cu       3.693754665  13.663294583   7.348285337
Cu       5.540595038  15.343875746   7.346244811
Cu       0.007518125   1.666031698   9.218098133
Cu       1.848041214  -0.011556621   9.230850118
Cu       3.694638672   1.656101098   9.203512287
Cu       5.541822011  -0.024004154   9.215135798
Cu       0.008350473   5.078524315   9.180489278
Cu       1.849413209   3.357098139   9.191411804
Cu       3.696735093   5.083093511   9.190032318
Cu       5.543329214   3.358318579   9.195527463
Cu       0.006947608   8.556468802   9.181186440
Cu       1.853602443   6.818298031   9.181924475
Cu       3.694569530   8.554065664   9.186208501
Cu       5.539676186   6.817633032   9.185797905
Cu       0.005749410  11.984453801   9.195865103
Cu       1.847677710  10.278245967   9.186846390
Cu       3.695006013  11.991139173   9.186646719
Cu       5.542551114  10.282455478   9.182933528
Cu       0.008025348  15.344561036   9.216828859
Cu       1.849847445  13.670441758   9.204157923
Cu       3.692282188  15.345797772   9.214026416
Cu       5.539591008  13.672458887   9.204521078
Cu       0.012290763  -0.016958418  11.100456889
Cu       1.847449333   1.690759444  11.104323553
Cu       3.689122980  -0.016646066  11.094031687
Cu       5.546753766   1.659347921  11.067330860
Cu       0.016088320   3.374662480  11.051696257
Cu       1.855833699   5.073570241  11.004332983
Cu       3.695824486   3.348790297  11.019371162
Cu       5.554317794   5.073074203  10.998575930
Cu       0.024680022   6.812048794  10.985097547
Cu       1.847102941   8.557543273  11.000481340
Cu       3.697351328   6.818740399  11.000545176
Cu       5.547757718   8.568576695  10.987152369
Cu       0.008212806  10.286736948  11.022010203
Cu       1.847415595  11.993770510  11.049775022
Cu       3.693636200  10.309045999  10.994229553
Cu       5.542951136  11.993359822  11.050243631
Cu       0.004158854  13.670308442  11.085286748
Cu       1.849107167  15.340637701  11.100981075
Cu       3.695861402  13.671516032  11.083184084
Cu       5.539518306  15.346600573  11.099851206
Cu       0.028386961   1.699581186  12.944221830
Cu       1.852613633  -0.011885965  12.977986417
Cu       3.688441326   1.696172940  12.932967956
Cu       5.542298065   0.001841056  12.973476888
Cu       0.044340414   5.102005108  12.879600376
Cu       1.863954283   3.444442104  12.966189171
Cu       3.722033690   5.078318830  12.794061001
Cu       5.559274132   3.376153955  12.873707863
Cu       0.022728668   8.559401474  12.827853179
Cu       1.858078677   6.798937271  12.813086075
Cu       3.700796934   8.583936012  12.777074969
Cu       5.584730166   6.829668574  12.777690476
Cu       0.004636155  11.973866762  12.922189836
Cu       1.841048165  10.287465975  12.860574714
Cu       3.695628828  11.967178458  12.919497183
Cu       5.551267053  10.284622387  12.854821462
Cu       0.003291955  15.340698984  12.989387096
Cu       1.848881932  13.654661294  12.971204317
Cu       3.698281864  15.342315910  12.986234680
Cu       5.540853089  13.654692073  12.967747944
Cu       0.006113811   0.025058339  14.824714719
Cu       1.867895898   1.713044971  14.804625056
Cu       3.710888060   0.024205808  14.826648991
Cu       5.562944497   1.748493011  14.782306663
Cu       0.048156766   3.435649473  14.768706419
Cu       1.818595436   5.115776651  14.867964400
Cu       3.711707383   3.416444246  14.732890706
Cu       5.573838026   5.094211248  14.637410180
Cu      -0.034528233   6.849172201  14.663474812
Cu       1.835412881   8.551805288  14.588564383
Cu       3.800543098   6.856651697  14.431101363
Cu       5.570574033   8.577334068  14.632192629
Cu       0.020803650  10.243870370  14.729930919
Cu       1.860008106  11.923855281  14.788308457
Cu       3.689373094  10.219370824  14.702231093
Cu       5.528613509  11.920197279  14.785895813
Cu       0.004417470  13.617353312  14.834033534
Cu       1.850216702  15.341087289  14.846618115
Cu       3.695830576  13.626374364  14.824758052
Cu       5.543980593  15.340708652  14.842238123
C        0.000029958   0.741206246  18.228398178
C        0.000342507   2.148470408  18.502375648
C        1.230300873   0.029373467  18.117090496
C        1.229926413   2.855295279  18.646343595
C        2.459425094   0.743282071  18.223756398
C        2.460117672   2.154391650  18.483354401
C        3.689085808   0.029391520  18.121053505
C        3.688645357   2.864324664  18.616383735
C        4.918930954   0.742121608  18.234298676
C        4.917750436   2.154470297  18.485087289
C        6.147639628   0.028480415  18.121065520
C        6.147786840   2.854762934  18.645012779
C       -0.001427179   4.971116356  19.018973997
C       -0.001369178   6.398746008  19.142037315
C        1.230363131   4.262214637  18.922551990
C        1.229507853   7.116944226  19.188099468
C        2.457717673   4.973554431  19.073578861
C        2.456684639   6.397119169  19.254261311
C        3.687167149   4.267243695  18.922562078
C_h        3.688917754   7.122259499  19.273060119
C        4.917451298   4.974798072  19.050570981
C        4.916747162   6.399707100  19.211002604
C        6.146679371   4.262228452  18.918750336
C        6.147763396   7.117642132  19.163258959
C        0.000523993   9.250331970  18.901707935
C        0.000854162  10.658234387  18.631763496
C        1.230993566   8.543504354  19.043967711
C        1.230517094  11.362941636  18.489115784
C        2.460850509   9.256624254  18.958103131
C        2.460607329  10.656921669  18.643981031
C        3.689644635   8.549207790  19.112212837
C        3.689597529  11.357779339  18.473716178
C        4.917500179   9.256754904  18.952777877
C        4.917851770  10.656385741  18.643786172
C        6.149381873   8.544773342  19.041217771
C        6.148337354  11.363796311  18.493991707
C        0.000003252  13.485165866  18.105483535
C       -0.000011407  14.915848783  17.988346204
C        1.230647082  12.772348990  18.223722393
C        1.230373797  15.637694847  17.995888042
C        2.460320434  13.485107884  18.122906476
C        2.460432664  14.915496389  18.006335539
C        3.688920686  12.768558926  18.214015194
C        3.689122652  15.638048619  18.008628396
C        4.918440231  13.484357570  18.120496008
C        4.918122880  14.915407683  18.005036956
C        6.147360260  12.772039816  18.223465520
C        6.147691893  15.638032983  17.992314136
C        2.749351519   6.176676895  16.067526484
O        3.315018768   6.933069481  16.804019538

K_POINTS automatic
4 2 1  0 0 0

CELL_PARAMETERS angstrom
7.378073983 0.000000000 0.0000000000
0.000000000 17.038932 0.0000000000
0.000000000 0.000000000 25.00
