&control
    calculation = 'relax'
    prefix = 'gc'
    pseudo_dir = '/home/549/hxw549/Short/pseudopotentials/'
    outdir = './'
    restart_mode = 'from_scratch'
    etot_conv_thr = 1.d-6
    forc_conv_thr = 1.d-5
/
&system
    ibrav = 0
    nat = 139
    ntyp = 5
    ecutwfc = 80
    occupations = 'smearing'
    smearing = 'gaussian'
    degauss = 0.1
    vdw_corr='grimme-d2'
/
&electrons
    diagonalization = 'david'
    diago_thr_init = 1.d-4
    mixing_mode = 'local-TF'
    mixing_beta = 0.7
    conv_thr =  1.d-8
/	
&ions
/
ATOMIC_SPECIES
Cu 63.546 Cu.pbe-n-van_ak.UPF
C_h 12.0107 C.star1s-pbe-mt_gipaw.UPF
C   12.0107 C.pbe-mt_gipaw.UPF
O   15.9994 O.pbe-van_gipaw.UPF
H  1.007825032 H.pbe-van_ak.UPF
ATOMIC_POSITIONS angstrom
Cu      -0.000047988  -0.000882156   7.395382934
Cu       1.844315299   1.705350123   7.406783936
Cu       3.689206236  -0.000100431   7.395030204
Cu       5.533898112   1.706929090   7.406218687
Cu       0.000294214   3.409457530   7.418936764
Cu       1.844257662   5.110259078   7.421039953
Cu       3.688878530   3.409181441   7.417428807
Cu       5.533939778   5.108997116   7.419623026
Cu       0.000082185   6.814307842   7.410120084
Cu       1.845539873   8.521276619   7.398893702
Cu       3.689065587   6.812802657   7.411736103
Cu       5.532666385   8.522088516   7.400031499
Cu      -0.000158039  10.228624785   7.395031466
Cu       1.844364954  11.933149881   7.395711593
Cu       3.689232742  10.230820106   7.396779123
Cu       5.533824915  11.933301726   7.395628560
Cu      -0.000188254  13.633360526   7.393393216
Cu       1.844793972  15.334067602   7.390780850
Cu       3.689258449  13.632063480   7.393567561
Cu       5.533359874  15.332997786   7.392323045
Cu       0.000193079   1.693303290   9.237293807
Cu       1.844522068  -0.009713409   9.230219121
Cu       3.688997113   1.693958834   9.236933745
Cu       5.533646567  -0.007151314   9.227055023
Cu      -0.000005017   5.116258902   9.251007353
Cu       1.844692524   3.400774711   9.249965514
Cu       3.689158955   5.112620763   9.250939205
Cu       5.533527948   3.402067708   9.251712117
Cu       0.000394365   8.531317618   9.231024142
Cu       1.844493702   6.828410817   9.241446908
Cu       3.688660164   8.531676664   9.232034353
Cu       5.533622550   6.825729627   9.237798300
Cu      -0.000577813  11.933581501   9.229682607
Cu       1.844914792  10.230960365   9.226988762
Cu       3.689453204  11.935334143   9.234032843
Cu       5.533022101  10.232437734   9.228932145
Cu       0.000276673  15.332373597   9.229616973
Cu       1.844445592  13.636261942   9.231083240
Cu       3.688716259  15.332812699   9.227953432
Cu       5.533287223  13.634401557   9.234712903
Cu       0.001268804  -0.011426053  11.077483143
Cu       1.846466519   1.680263042  11.081965783
Cu       3.687721471  -0.012906674  11.077851679
Cu       5.531710291   1.679218435  11.082099416
Cu      -0.000778579   3.393526071  11.076208671
Cu       1.845352265   5.121956219  11.073101852
Cu       3.689932661   3.389842303  11.083397376
Cu       5.532717295   5.127777198  11.078651773
Cu      -0.000268589   6.840908782  11.080229391
Cu       1.842842847   8.545096545  11.085302073
Cu       3.688882914   6.836787481  11.075187226
Cu       5.534065033   8.537402037  11.075117401
Cu       0.001140527  10.235912155  11.078140019
Cu       1.843648901  11.931986063  11.070203050
Cu       3.687251826  10.234659112  11.080845198
Cu       5.532190504  11.929505819  11.078406566
Cu       0.001249646  13.632789644  11.079825004
Cu       1.844526530  15.330424284  11.088337006
Cu       3.685686774  13.642393107  11.083700913
Cu       5.532996759  15.339363967  11.077504688
Cu      -0.000345592   1.681534742  12.919512168
Cu       1.848363139  -0.016599309  12.947771019
Cu       3.689186765   1.660028899  12.945024169
Cu       5.528968773  -0.018058832  12.946273447
Cu      -0.002809549   5.116854787  12.885606703
Cu       1.851188828   3.404946628  12.885625918
Cu       3.691299314   5.124818308  12.895165531
Cu       5.526759581   3.404401866  12.886787582
Cu      -0.005496604   8.545803296  12.935556656
Cu       1.842649374   6.833371652  12.910613543
Cu       3.687383772   8.534488864  12.921912913
Cu       5.532819458   6.851957223  12.931918388
Cu       0.001528121  11.934601613  12.934991509
Cu       1.837705354  10.262741821  12.950233868
Cu       3.676480711  11.943425131  12.922756506
Cu       5.536283053  10.232335772  12.929061894
Cu       0.001959214  15.335990241  12.924440299
Cu       1.842146907  13.609494678  12.940395276
Cu       3.684220681  15.350207255  12.949712253
Cu       5.528007448  13.636011389  12.902731172
Cu       0.000544344  -0.006370866  14.774265220
Cu       1.841655832   1.732888798  14.699239673
Cu       3.685533326  -0.025781077  14.892760693
Cu       5.535645689   1.730702304  14.699576894
Cu      -0.001302052   3.423170679  14.693464741
Cu       1.848886245   5.105166256  14.698819667
Cu       3.689447230   3.416950344  14.706690256
Cu       5.526942311   5.108528498  14.699999152
Cu       0.000642448   6.795639977  14.702253486
Cu       1.830443390   8.532180143  14.726683075
Cu       3.681149840   6.815638412  14.720637948
Cu       5.525241476   8.543001742  14.816149604
Cu      -0.023286934  10.240084943  14.763080786
Cu       1.825607833  11.958129257  14.891846255
Cu       3.697159174  10.241490025  14.703334100
Cu       5.516104744  11.952192156  14.750717923
Cu      -0.025749242  13.640478891  14.752273418
Cu       1.830467123  15.299368725  14.754244568
Cu       3.693640604  13.638617589  14.764866344
Cu       5.538204266  15.308975109  14.754250643
C       -0.001007499   0.624306870  17.497746299
C       -0.000834877   2.066200927  17.576823006
C        1.228427184  -0.068442197  17.422657689
C        1.228353874   2.777932742  17.588913467
C        2.452360833   0.623239022  17.391164284
C        2.455055878   2.062048596  17.494002249
C        3.689964392  -0.065282556  17.207162762
C        3.686378910   2.780280558  17.514426553
C        4.925454891   0.627600053  17.392241039
C        4.921062874   2.066702016  17.495421226
C        6.147823940  -0.066648016  17.423400757
C        6.149171406   2.780853819  17.590507758
C        0.004034331   4.926442595  17.642105406
C        0.009274015   6.357484695  17.583133214
C        1.230067254   4.211378428  17.625156377
C        1.233646830   7.095911236  17.546548403
C        2.456443397   4.936945022  17.595540357
C        2.457188297   6.373021795  17.581274399
C        3.684410751   4.211711059  17.576129727
C        3.685699841   7.093749153  17.541918613
C        4.914279144   4.926340377  17.595672210
C        4.912648624   6.356559216  17.563757605
C        6.149203301   4.213752584  17.627146006
C        6.149625120   7.046788253  17.529916558
C       -0.021109417   9.188787192  17.386641028
C        1.225166410   8.545673484  17.466062195
C        2.467069928   9.287977147  17.492514445
C        3.697398066   8.539464006  17.494601410
C        4.939187088   9.172527345  17.308014400
C        6.152060180   8.464161319  17.395977144
H        1.225138814  -1.161928479  17.382783622
H        3.692157507  -1.156176677  17.283310117
H        6.149950904  -1.160048636  17.382712473
H       -0.086633624  10.273294216  17.394919216
H        5.006666503  10.252732114  17.247119531
C        2.442843767  10.747907216  17.449869202
O        1.498621050  11.472625757  16.977255648
O        3.513324389  11.430440826  17.971634244
H        3.374173790  12.376477085  17.718850614
K_POINTS automatic
4 2 1  0 0 0
CELL_PARAMETERS angstrom
7.378073983 0.000000000 0.0000000000
0.000000000 17.038932 0.0000000000
0.000000000 0.000000000 25.00
