&control
    calculation = 'relax'
    prefix = 'gc'
    pseudo_dir = '/home/549/hxw549/Short/pseudopotentials/'
    outdir = './'
    restart_mode = 'from_scratch'
    etot_conv_thr = 1.d-6
    forc_conv_thr = 1.d-5
/
&system
    ibrav = 0
    nat = 180
    ntyp = 2
    ecutwfc = 40
    ecutrho = 180
    occupations = 'smearing'
    smearing = 'gaussian'
    degauss = 0.1
    vdw_corr='grimme-d2'
/
&electrons
    diagonalization = 'david'
    diago_thr_init = 1.d-4
    mixing_mode = 'plain'
    mixing_beta = 0.7
    conv_thr =  1.d-8
/ 
&ions
/
ATOMIC_SPECIES
Cu 63.546 Cu.pbe-n-van_ak.UPF
C   12.0107 C.pbe-mt_gipaw.UPF
ATOMIC_POSITIONS angstrom
Cu 0 0 7.64526734
Cu 0 3.648586695 7.64526734
Cu 0 7.29717339 7.64526734
Cu 3.648586695 0 7.64526734
Cu 3.648586695 3.648586695 7.64526734
Cu 3.648586695 7.29717339 7.64526734
Cu 7.29717339 0 7.64526734
Cu 7.29717339 3.648586695 7.64526734
Cu 7.29717339 7.29717339 7.64526734
Cu 10.94576009 0 7.64526734
Cu 10.94576009 3.648586695 7.64526734
Cu 10.94576009 7.29717339 7.64526734
Cu 1.824293348 1.824293348 7.64526734
Cu 1.824293348 5.472880043 7.64526734
Cu 1.824293348 9.121466738 7.64526734
Cu 5.472880043 1.824293348 7.64526734
Cu 5.472880043 5.472880043 7.64526734
Cu 5.472880043 9.121466738 7.64526734
Cu 9.121466738 1.824293348 7.64526734
Cu 9.121466738 5.472880043 7.64526734
Cu 9.121466738 9.121466738 7.64526734
Cu 12.77005343 1.824293348 7.64526734
Cu 12.77005343 5.472880043 7.64526734
Cu 12.77005343 9.121466738 7.64526734
Cu 0 1.824293348 9.42175470
Cu 0 5.472880043 9.42175470
Cu 0 9.121466738 9.42175470
Cu 3.648586695 1.824293348 9.42175470
Cu 3.648586695 5.472880043 9.42175470
Cu 3.648586695 9.121466738 9.42175470
Cu 7.29717339 1.824293348 9.42175470
Cu 7.29717339 5.472880043 9.42175470
Cu 7.29717339 9.121466738 9.42175470
Cu 10.94576009 1.824293348 9.42175470
Cu 10.94576009 5.472880043 9.42175470
Cu 10.94576009 9.121466738 9.42175470
Cu 1.824293348 0 9.42175470
Cu 1.824293348 3.648586695 9.42175470
Cu 1.824293348 7.29717339 9.42175470
Cu 5.472880043 0 9.42175470
Cu 5.472880043 3.648586695 9.42175470
Cu 5.472880043 7.29717339 9.42175470
Cu 9.121466738 0 9.42175470
Cu 9.121466738 3.648586695 9.42175470
Cu 9.121466738 7.29717339 9.42175470
Cu 12.77005343 0 9.42175470
Cu 12.77005343 3.648586695 9.42175470
Cu 12.77005343 7.29717339 9.42175470
Cu 0 0 11.25
Cu 0 3.648586695 11.25
Cu 0 7.29717339 11.25
Cu 3.648586695 0 11.25
Cu 3.648586695 3.648586695 11.25
Cu 3.648586695 7.29717339 11.25
Cu 7.29717339 0 11.25
Cu 7.29717339 3.648586695 11.25
Cu 7.29717339 7.29717339 11.25
Cu 10.94576009 0 11.25
Cu 10.94576009 3.648586695 11.25
Cu 10.94576009 7.29717339 11.25
Cu 1.824293348 1.824293348 11.25
Cu 1.824293348 5.472880043 11.25
Cu 1.824293348 9.121466738 11.25
Cu 5.472880043 1.824293348 11.25
Cu 5.472880043 5.472880043 11.25
Cu 5.472880043 9.121466738 11.25
Cu 9.121466738 1.824293348 11.25
Cu 9.121466738 5.472880043 11.25
Cu 9.121466738 9.121466738 11.25
Cu 12.77005343 1.824293348 11.25
Cu 12.77005343 5.472880043 11.25
Cu 12.77005343 9.121466738 11.25
Cu 0 1.824293348 13.07824657
Cu 0 5.472880043 13.07824657
Cu 0 9.121466738 13.07824657
Cu 3.648586695 1.824293348 13.07824657
Cu 3.648586695 5.472880043 13.07824657
Cu 3.648586695 9.121466738 13.07824657
Cu 7.29717339 1.824293348 13.07824657
Cu 7.29717339 5.472880043 13.07824657
Cu 7.29717339 9.121466738 13.07824657
Cu 10.94576009 1.824293348 13.07824657
Cu 10.94576009 5.472880043 13.07824657
Cu 10.94576009 9.121466738 13.07824657
Cu 1.824293348 0 13.07824657
Cu 1.824293348 3.648586695 13.07824657
Cu 1.824293348 7.29717339 13.07824657
Cu 5.472880043 0 13.07824657
Cu 5.472880043 3.648586695 13.07824657
Cu 5.472880043 7.29717339 13.07824657
Cu 9.121466738 0 13.07824657
Cu 9.121466738 3.648586695 13.07824657
Cu 9.121466738 7.29717339 13.07824657
Cu 12.77005343 0 13.07824657
Cu 12.77005343 3.648586695 13.07824657
Cu 12.77005343 7.29717339 13.07824657
Cu 0 0 14.85474732
Cu 0 3.648586695 14.85474732
Cu 0 7.29717339 14.85474732
Cu 3.648586695 0 14.85474732
Cu 3.648586695 3.648586695 14.85474732
Cu 3.648586695 7.29717339 14.85474732
Cu 7.29717339 0 14.85474732
Cu 7.29717339 3.648586695 14.85474732
Cu 7.29717339 7.29717339 14.85474732
Cu 10.94576009 0 14.85474732
Cu 10.94576009 3.648586695 14.85474732
Cu 10.94576009 7.29717339 14.85474732
Cu 1.824293348 1.824293348 14.85474732
Cu 1.824293348 5.472880043 14.85474732
Cu 1.824293348 9.121466738 14.85474732
Cu 5.472880043 1.824293348 14.85474732
Cu 5.472880043 5.472880043 14.85474732
Cu 5.472880043 9.121466738 14.85474732
Cu 9.121466738 1.824293348 14.85474732
Cu 9.121466738 5.472880043 14.85474732
Cu 9.121466738 9.121466738 14.85474732
Cu 12.77005343 1.824293348 14.85474732
Cu 12.77005343 5.472880043 14.85474732
Cu 12.77005343 9.121466738 14.85474732
C 1.198223822 0.725472467 17.35474732
C -0.029828374 1.461782638 17.35474732
C 3.633258847 0.73111944 17.35474732
C 2.402873997 1.461935627 17.35474732
C 6.063576779 0.729800684 17.35474732
C 4.839151748 1.467445132 17.35474732
C 8.493634176 0.729615065 17.35474732
C 7.263763016 1.467392756 17.35474732
C 10.92667054 0.725475729 17.35474732
C 9.698522072 1.462045993 17.35474732
C 13.36030921 0.725768649 17.35474732
C 12.13152279 1.461479014 17.35474732
C -0.065408473 2.916416349 17.35474732
C -1.294211316 3.651965954 17.35474732
C 2.36751377 2.916181355 17.35474732
C 1.139007099 3.65251669 17.35474732
C 4.801213705 2.92576613 17.35474732
C 3.569562019 3.650959579 17.35474732
C 7.228760646 2.925975347 17.35474732
C 6.002260419 3.655998 17.35474732
C 9.662520507 2.916201714 17.35474732
C 8.43686 3.651495002 17.35474732
C 12.09581794 2.916185218 17.35474732
C 10.86711988 3.652742052 17.35474732
C -1.32960377 5.105919977 17.35474732
C -2.559744675 5.841498566 17.35474732
C 1.107111698 5.105861056 17.35474732
C -0.123679445 5.841262346 17.35474732
C 3.544213496 5.102474843 17.35474732
C 2.312794307 5.842958873 17.35474732
C 5.966927869 5.103717887 17.35474732
C 4.74197543 5.836672602 17.35474732
C 8.391137799 5.103562895 17.35474732
C 7.168515923 5.837166136 17.35474732
C 10.82848064 5.106242362 17.35474732
C 9.598521719 5.843593147 17.35474732
C -2.593614566 7.295274239 17.35474732
C -3.821069121 8.030991127 17.35474732
C -0.159755848 7.29512021 17.35474732
C -1.388749265 8.030894641 17.35474732
C 2.273232568 7.293355151 17.35474732
C 1.044163436 8.030597507 17.35474732
C 4.709790043 7.285798494 17.35474732
C 3.477581532 8.023547989 17.35474732
C 7.13062275 7.28527 17.35474732
C 5.907813756 8.029763123 17.35474732
C 9.567750569 7.293641613 17.35474732
C 8.339194032 8.022208009 17.35474732
C -3.856418808 9.484404846 17.35474732
C -5.08652721 10.2161973 17.35474732
C -1.423930329 9.485288114 17.35474732
C -2.651767745 10.22166081 17.35474732
C 1.008143634 9.484067016 17.35474732
C -0.219559967 10.22032859 17.35474732
C 3.440967837 9.480178841 17.35474732
C 2.211798769 10.21893737 17.35474732
C 5.871604046 9.480636855 17.35474732
C 4.643166044 10.21724241 17.35474732
C 8.303457047 9.478299936 17.35474732
C 7.076986675 10.21643107 17.35474732
K_POINTS automatic
2 2 1 0 0 0
CELL_PARAMETERS angstrom
14.59434678 0.000000000 0.0000000000
0.000000000 10.94576009 0.0000000000
0.000000000 0.000000000 25.000000000
