&control
    calculation = 'scf'
    prefix = 'gc'
    pseudo_dir = '/home/549/hxw549/Short/pseudopotentials/'
    outdir = './'
    restart_mode = 'from_scratch'
    etot_conv_thr = 1.d-6
    forc_conv_thr = 1.d-5
/
&system
    ibrav = 0
    nat = 151
    ntyp = 5
    ecutwfc = 80
    occupations = 'smearing'
    smearing = 'gaussian'
    degauss = 0.1
    vdw_corr='grimme-d2'
    tot_charge=1
/
&electrons
    diagonalization = 'david'
    diago_thr_init = 1.d-4
    mixing_mode = 'local-TF'
    mixing_beta = 0.7
    conv_thr =  1.d-8
/	
&ions
/
ATOMIC_SPECIES
Cu 63.546 Cu.pbe-n-van_ak.UPF
C_h 12.0107 C.star1s-pbe-mt_gipaw.UPF
C   12.0107 C.pbe-mt_gipaw.UPF
O   15.9994 O.pbe-van_gipaw.UPF
H  1.007825032 H.pbe-van_ak.UPF
ATOMIC_POSITIONS angstrom
Cu       0.000611044  -0.014220248   7.362598197
Cu       1.845094412   1.689503223   7.365300676
Cu       3.689540222  -0.014278871   7.362688846
Cu       5.534090990   1.689336065   7.365152611
Cu       0.000549914   3.392006766   7.367898235
Cu       1.844934788   5.095409330   7.368637641
Cu       3.689578939   3.392373276   7.367607993
Cu       5.534205464   5.095425188   7.368634998
Cu       0.000523303   6.800189281   7.368138197
Cu       1.845180593   8.505142841   7.367698300
Cu       3.689556719   6.799837760   7.368087798
Cu       5.533921617   8.505210963   7.367685280
Cu       0.000508903  10.209597248   7.367088375
Cu       1.845091516  11.913053122   7.365914977
Cu       3.689549729  10.209636869   7.367736531
Cu       5.534022376  11.912915088   7.366041358
Cu       0.000505142  13.616141841   7.363348835
Cu       1.845079082  15.320199901   7.361837158
Cu       3.689595967  13.616297772   7.363498393
Cu       5.534087043  15.320399484   7.361758402
Cu       0.000544786   1.686283724   9.198605331
Cu       1.845013284  -0.016482506   9.195979168
Cu       3.689553650   1.686529040   9.198104321
Cu       5.534119736  -0.016440027   9.196042383
Cu       0.000561427   5.096171138   9.199997277
Cu       1.845020621   3.390954813   9.200253325
Cu       3.689544579   5.095841551   9.200075683
Cu       5.534113666   3.390813201   9.200000338
Cu       0.000541335   8.505123615   9.198872740
Cu       1.844988625   6.800520040   9.199132344
Cu       3.689567490   8.504777003   9.199089751
Cu       5.534152119   6.800565717   9.199043464
Cu       0.000531823  11.914386679   9.198655219
Cu       1.845058171  10.209861159   9.199180171
Cu       3.689560936  11.914824578   9.199014903
Cu       5.534077154  10.209722625   9.199353814
Cu       0.000541593  15.320623528   9.195106336
Cu       1.844985561  13.618115942   9.197063521
Cu       3.689546901  15.320509968   9.195138899
Cu       5.534140602  13.618308765   9.196818234
Cu       0.000415835  -0.018972222  11.040106608
Cu       1.845143179   1.684635346  11.038977253
Cu       3.689556208  -0.018442324  11.039428674
Cu       5.533832294   1.684834995  11.038969227
Cu       0.000484601   3.391389495  11.038745649
Cu       1.845213100   5.097452477  11.040583929
Cu       3.689483775   3.391432195  11.039502866
Cu       5.533878594   5.097218228  11.040162918
Cu       0.000564117   6.801229171  11.041128189
Cu       1.844809249   8.503821042  11.039991134
Cu       3.689575090   6.800467410  11.040485043
Cu       5.534450945   8.503584757  11.040115032
Cu       0.000597539  10.209122701  11.039398271
Cu       1.844759903  11.915176865  11.039302641
Cu       3.689606576  10.208457939  11.038691993
Cu       5.534401012  11.915573385  11.038835625
Cu       0.000630073  13.619514445  11.038992068
Cu       1.844901832  15.320372032  11.040007495
Cu       3.689438160  13.620084045  11.039796222
Cu       5.534166483  15.320254227  11.040020420
Cu       0.000241180   1.687125706  12.874228466
Cu       1.845887948  -0.017742664  12.882162366
Cu       3.689346518   1.685187783  12.877920409
Cu       5.532872698  -0.017769040  12.882155918
Cu       0.000406575   5.096412306  12.878236380
Cu       1.847083817   3.391614742  12.874710435
Cu       3.689329567   5.097794264  12.882091260
Cu       5.531575272   3.391997155  12.874977429
Cu       0.000610083   8.503539219  12.882563810
Cu       1.845293982   6.801162661  12.883507347
Cu       3.689769916   8.503832219  12.879311736
Cu       5.533847311   6.800282479  12.883322593
Cu       0.000801980  11.915472041  12.877466053
Cu       1.843327998  10.207925424  12.875650938
Cu       3.689403231  11.913173654  12.873415792
Cu       5.536070350  10.208629610  12.874692005
Cu       0.000423185  15.318491736  12.885757089
Cu       1.843991194  13.618650667  12.881485024
Cu       3.689476768  15.321068204  12.885738276
Cu       5.535085833  13.618493723  12.881283545
Cu       0.000095662  -0.008835296  14.694185231
Cu       1.846232559   1.690718684  14.691764050
Cu       3.689296602  -0.012688442  14.706952510
Cu       5.531916070   1.691425179  14.691238258
Cu       0.000840517   3.390785943  14.687257670
Cu       1.850611500   5.091475881  14.693359756
Cu       3.688225657   3.386954141  14.697240440
Cu       5.527506542   5.091059078  14.694044053
Cu       0.000739969   6.792136237  14.698608265
Cu       1.839284426   8.509149333  14.696073035
Cu       3.689298145   6.808201995  14.698517072
Cu       5.540239424   8.509371761  14.693305065
Cu       0.000715673  10.213869889  14.698781646
Cu       1.843133108  11.909683737  14.690512129
Cu       3.689734750  10.210000482  14.686422810
Cu       5.536173904  11.909712483  14.689898669
Cu       0.000563347  13.613559573  14.707090821
Cu       1.845099068  15.319845318  14.701753962
Cu       3.689467888  13.608767273  14.692846020
Cu       5.533656225  15.319527984  14.701580919
C        0.004293437   0.747397204  17.636579943
C        0.004235981   2.167055483  17.636098234
C        1.233643303   0.037485616  17.630616309
C        1.232657156   2.876757216  17.625199832
C        2.462246630   0.747080419  17.613056749
C        2.462228439   2.167106573  17.607016898
C        3.693366483   0.036509176  17.602047049
C        3.693394560   2.877505091  17.589954744
C        4.924529446   0.747021915  17.608482625
C        4.924502750   2.167118985  17.599387965
C        6.153117008   0.037427341  17.627933980
C        6.153999771   2.876956355  17.619014683
C        0.004577688   5.006599950  17.624435006
C        0.004994337   6.426326679  17.608673514
C        1.232695736   4.296664974  17.618942129
C        1.235061609   7.136825931  17.610293154
C        2.463319233   5.006888256  17.597930943
C        2.463096192   6.427043995  17.600735041
C        3.693901289   4.297392089  17.588401954
C        3.694293107   7.137663205  17.584530944
C        4.924418243   5.007145152  17.586469633
C        4.925032547   6.426874131  17.586293772
C        6.154427650   4.296962265  17.612388421
C        6.152638072   7.136496028  17.601414434
C        0.004832401   9.266293889  17.601565239
C        0.004496072  10.685977451  17.590848524
C        1.235116647   8.556588949  17.603267581
C        1.235595875  11.396354219  17.601654056
C        2.465278672   9.267044087  17.613473385
C        2.464887881  10.686437815  17.623485105
C        3.693618508   8.557805836  17.609382756
C        3.693304122  11.396512531  17.633837666
C        4.921889418   9.267122393  17.610752065
C        4.921731621  10.686879004  17.619325852
C        6.152619148   8.556522580  17.600911011
C        6.151204701  11.396514112  17.598524599
C        0.004484665  13.526998020  17.594305801
C        0.004571393  14.946786557  17.617754984
C        1.235629736  12.816263078  17.603045975
C        1.233687541  15.656504135  17.619968635
C        2.464313292  13.525950350  17.621273527
C        2.464479066  14.945849613  17.618142024
C        3.693389178  12.815880209  17.629622958
C        3.693599611  15.655598057  17.621030245
C        4.922645013  13.525889578  17.620959528
C        4.922569108  14.945783337  17.617204897
C        6.151349018  12.816381352  17.602336327
C        6.153413424  15.656427849  17.618852373
C_h      2.751630930   7.947206731  21.943948059 
O        2.751630930   7.947206731  20.756589648
O        2.751630930   7.947206731  23.131396685 
K_POINTS automatic
4 2 1  0 0 0
CELL_PARAMETERS angstrom
7.378073983 0.000000000 0.0000000000
0.000000000 17.038932 0.0000000000
0.000000000 0.000000000 25.00
