 &projwfc
    outdir='/short/y35/tjf502/QE-5.4.0-bw/tempdir/'
    prefix='ni'
    ngauss=0, degauss=0.036748
    DeltaE=0.01
    kresolveddos=.true.
    filpdos='ni.k'
 /
