&control
    calculation = 'scf'
    prefix = 'gc'
    pseudo_dir = '/home/549/hxw549/Short/pseudopotentials/'
    outdir = './'
    restart_mode = 'from_scratch'
    etot_conv_thr = 1.d-6
    forc_conv_thr = 1.d-5
    
/

&system
    ibrav = 0
    nat = 137
    ntyp = 5
    ecutwfc = 80
    occupations = 'smearing'
    smearing = 'gaussian'
    degauss = 0.1
    vdw_corr='grimme-d2'
    tot_charge=1
/

&electrons
    diagonalization = 'david'
    diago_thr_init = 1.d-4
    mixing_mode = 'local-TF'
    mixing_beta = 0.7
    conv_thr =  1.d-8
    	

/	

&ions
    
/


ATOMIC_SPECIES
Cu 63.546 Cu.pbe-n-van_ak.UPF
C_h 12.0107 C.star1s-pbe-mt_gipaw.UPF
C   12.0107 C.pbe-mt_gipaw.UPF
O   15.9994 O.pbe-van_gipaw.UPF
H  1.007825032 H.pbe-van_ak.UPF



ATOMIC_POSITIONS angstrom
Cu      -0.004146060   0.011762682   7.399019285
Cu       1.843589502   1.714770771   7.406181302
Cu       3.689179808   0.012005121   7.398064822
Cu       5.530465701   1.715648538   7.410630450
Cu      -0.001634719   3.417782137   7.417062569
Cu       1.841960489   5.115831956   7.414814979
Cu       3.686299085   3.416543779   7.415544497
Cu       5.531837151   5.116924031   7.416632356
Cu      -0.001945885   6.822097949   7.403666013
Cu       1.843530503   8.531956284   7.393697478
Cu       3.687431952   6.820416238   7.408062601
Cu       5.531558214   8.533369042   7.392793322
Cu      -0.001295633  10.242960315   7.386973560
Cu       1.842367947  11.948398230   7.392477790
Cu       3.687541149  10.244210376   7.390657466
Cu       5.532619094  11.947686381   7.392838879
Cu      -0.001156663  13.648450004   7.395802980
Cu       1.842631356  15.351324343   7.396228166
Cu       3.686766188  13.648395518   7.396535606
Cu       5.531351275  15.347417243   7.396847817
Cu      -0.001214557   1.705172970   9.240323566
Cu       1.842915081   0.004185401   9.233992217
Cu       3.687758668   1.706226963   9.241116911
Cu       5.532596934   0.003428009   9.236807772
Cu      -0.002200101   5.128187078   9.248768489
Cu       1.842063487   3.412618789   9.250133756
Cu       3.686276106   5.123261094   9.247629930
Cu       5.532105473   3.414312737   9.250792445
Cu      -0.002162521   8.541816867   9.220619638
Cu       1.841560972   6.837919124   9.232628021
Cu       3.686846370   8.541415599   9.221120065
Cu       5.531407367   6.836966849   9.232083874
Cu      -0.002414722  11.943525958   9.228545102
Cu       1.841901198  10.243253281   9.219890642
Cu       3.687594990  11.946402562   9.229041001
Cu       5.532396370  10.242534319   9.220528628
Cu      -0.001313962  15.345338048   9.233946666
Cu       1.842280008  13.645561916   9.232523170
Cu       3.687288993  15.345004149   9.232636827
Cu       5.532216956  13.646226553   9.234312296
Cu      -0.001173158  -0.003891090  11.085394712
Cu       1.843999097   1.691943670  11.083586723
Cu       3.687773893  -0.002443474  11.082248929
Cu       5.530134455   1.692504338  11.083455023
Cu      -0.002873756   3.408242525  11.077376679
Cu       1.842496714   5.139215237  11.069578009
Cu       3.687475052   3.404878344  11.083767099
Cu       5.530380413   5.142559534  11.074773973
Cu      -0.003623000   6.858512571  11.076891771
Cu       1.841612761   8.552125295  11.072477403
Cu       3.686560814   6.853366670  11.071449070
Cu       5.531383941   8.550509797  11.070708530
Cu      -0.002666296  10.238703261  11.071645915
Cu       1.842869120  11.937821855  11.069405981
Cu       3.688227047  10.240953752  11.066963613
Cu       5.531873829  11.936400534  11.071073951
Cu      -0.002529634  13.643539324  11.076573047
Cu       1.844433595  15.343714605  11.082194697
Cu       3.688649282  13.649383665  11.080195544
Cu       5.532096135  15.345686496  11.085506336
Cu      -0.004187619   1.691608208  12.918952189
Cu       1.845914897  -0.012699414  12.945820206
Cu       3.686958303   1.671062490  12.944509655
Cu       5.528981685  -0.008047340  12.949212427
Cu      -0.004669410   5.139507555  12.882769076
Cu       1.848079007   3.422854907  12.880271530
Cu       3.688505287   5.144185727  12.891284077
Cu       5.524508023   3.419513901  12.880819891
Cu      -0.006534583   8.567139617  12.946633350
Cu       1.840111649   6.855174467  12.905752227
Cu       3.690083408   8.558221626  12.926999588
Cu       5.532324919   6.867367543  12.922516574
Cu      -0.002834363  11.935364709  12.916871472
Cu       1.843515670  10.250335165  12.923163437
Cu       3.691382048  11.940903556  12.911730059
Cu       5.535618276  10.246606739  12.932882914
Cu      -0.000680389  15.332756627  12.936347247
Cu       1.846829227  13.636005159  12.903710537
Cu       3.690292892  15.355752260  12.952156847
Cu       5.531806974  13.633001848  12.910860794
Cu      -0.002724092   0.001895263  14.776099377
Cu       1.837385925   1.743423700  14.683218645
Cu       3.683447708  -0.025034115  14.885311192
Cu       5.531920382   1.748149202  14.693575542
Cu       0.000594786   3.443951021  14.677470723
Cu       1.851740565   5.133917542  14.687988983
Cu       3.681858710   3.432977912  14.697368980
Cu       5.520450992   5.120779075  14.689370107
Cu      -0.010211183   6.810865579  14.712050638
Cu       1.828408031   8.542876681  14.733352037
Cu       3.693578180   6.844544376  14.716324564
Cu       5.547849281   8.577028948  14.784687437
Cu       0.028219450  10.284460266  14.819953094
Cu       1.852756005  11.966263775  14.743238474
Cu       3.678704113  10.258123312  14.758212887
Cu       5.527580891  11.943615834  14.762248145
Cu      -0.003984648  13.611138095  14.779294548
Cu       1.826727303  15.296541862  14.746509380
Cu       3.695966996  13.636870675  14.761967941
Cu       5.551500969  15.305022475  14.747804609
C        0.026089699   0.631675692  17.460996601
C        0.023804568   2.070898339  17.534021162
C        1.256775832  -0.058635639  17.404101067
C        1.250279414   2.783417202  17.549305824
C        2.479470563   0.634248976  17.370600037
C        2.479198423   2.071735739  17.458307928
C        3.714768142  -0.058695084  17.193650305
C        3.710493870   2.786564694  17.474767890
C        4.949835040   0.635902997  17.359777204
C        4.945031353   2.073082180  17.451984845
C        6.174280881  -0.057226939  17.387551473
C        6.173320777   2.783808320  17.545536682
C        0.020983379   4.928867617  17.606168984
C        0.018996354   6.359458306  17.572959379
C        1.248352423   4.213517310  17.590087765
C        1.248178805   7.076002793  17.556220526
C        2.476364534   4.929084579  17.569919953
C        2.474097320   6.359305890  17.569604964
C        3.708553086   4.214722608  17.544675103
C        3.703664292   7.069745846  17.555175186
C        4.939228604   4.927661450  17.565981723
C        4.936499946   6.356862168  17.565656224
C        6.171214634   4.213937919  17.585655542
C        6.164714588   7.069066090  17.547869430
C        0.007492431   9.209590228  17.510385131
C        1.237554459   8.519496279  17.536321820
C_h        2.478599108   9.203843519  17.547660593
C        3.709214740   8.506906900  17.546741382
C        4.931465055   9.200472367  17.464193391
C        6.160660553   8.506678335  17.494896162
H        1.256577718  -1.150112849  17.369992815
H        3.715943666  -1.147829610  17.278898697
H        6.173639425  -1.149176564  17.353800772
H       -0.028228809  10.294180019  17.617825685
O        2.546312409  10.572264303  17.575645121
H        1.871334957  10.969551466  16.958635433
H        4.930492322  10.288964037  17.452798398

K_POINTS automatic
4 2 1  0 0 0

CELL_PARAMETERS angstrom
7.378073983 0.000000000 0.0000000000
0.000000000 17.038932 0.0000000000
0.000000000 0.000000000 25.00
