&control
    calculation = 'relax'
    prefix = 'copper'
    pseudo_dir = '/home/549/hxw549/Short/pseudopotentials/'
    outdir = './'
    restart_mode = 'from_scratch'
    etot_conv_thr = 1.d-6
    forc_conv_thr = 1.d-5

/

&system
    ibrav = 0
    nat = 64
    ntyp = 1
    ecutwfc = 80
    occupations = 'smearing'
    smearing = 'gaussian'
    degauss = 0.1
    vdw_corr='grimme-d2'
/

&electrons
    diagonalization = 'david'
    diago_thr_init = 1.d-4
    mixing_mode = 'plain'
    mixing_beta = 0.7
    conv_thr =  1.d-8
    	

/	

&ions
    
/


ATOMIC_SPECIES
Cu 63.546 Cu.pbe-n-van_ak.UPF

ATOMIC_POSITIONS crystal
Cu      0       0       0.33
Cu      0.5     0       0.33
Cu      0       0.5     0.33
Cu      0.5     0.5     0.33
Cu      0.25    0       0.33
Cu      0.75    0       0.33
Cu      0.25    0.5     0.33
Cu      0.75    0.5     0.33
Cu      0       0.25    0.33
Cu      0.5     0.25    0.33
Cu      0       0.75    0.33
Cu      0.5     0.75    0.33
Cu      0.25    0.25    0.33
Cu      0.75    0.25    0.33
Cu      0.25    0.75    0.33
Cu      0.75    0.75    0.33
Cu      0.1875  0.0835  0.41
Cu      0.6875  0.0835  0.41
Cu      0.1875  0.5835  0.41
Cu      0.6875  0.5835  0.41
Cu      0.4375  0.0835  0.41
Cu      0.9375  0.0835  0.41
Cu      0.4375  0.5835  0.41
Cu      0.9375  0.5835  0.41
Cu      0.1875  0.3335  0.41
Cu      0.6875  0.3335  0.41
Cu      0.1875  0.8335  0.41
Cu      0.6875  0.8335  0.41
Cu      0.4375  0.3335  0.41
Cu      0.9375  0.3335  0.41
Cu      0.4375  0.8335  0.41
Cu      0.9375  0.8335  0.41
Cu      0.375   0.1665  0.49
Cu      0.875   0.1665  0.49
Cu      0.375   0.6665  0.49
Cu      0.875   0.6665  0.49
Cu      0.125   0.1665  0.49
Cu      0.625   0.1665  0.49
Cu      0.125   0.6665  0.49
Cu      0.625   0.6665  0.49
Cu      0.375   0.4165  0.49
Cu      0.875   0.4165  0.49
Cu      0.375   0.9165  0.49
Cu      0.875   0.9165  0.49
Cu      0.125   0.4165  0.49
Cu      0.625   0.4165  0.49
Cu      0.125   0.9165  0.49
Cu      0.625   0.9165  0.49
Cu      0.0625  0       0.57
Cu      0.5625  0       0.57
Cu      0.0625  0.5     0.57
Cu      0.5625  0.5     0.57
Cu      0.3125  0       0.57
Cu      0.8125  0       0.57
Cu      0.3125  0.5     0.57
Cu      0.8125  0.5     0.57
Cu      0.0625  0.25    0.57
Cu      0.5625  0.25    0.57
Cu      0.0625  0.75    0.57
Cu      0.5625  0.75    0.57
Cu      0.3125  0.25    0.57
Cu      0.8125  0.25    0.57
Cu      0.3125  0.75    0.57
Cu      0.8125  0.75    0.57



K_POINTS automatic
8 8 1 0 0 0

CELL_PARAMETERS angstrom
10.328  0.000   0.0000000000
-5.164  8.942   0.0000000000
0.000   0.000   25.000000000
