&control
    calculation = 'relax'
    prefix = 'gc'
    pseudo_dir = '/home/549/hxw549/Short/pseudopotentials/'
    outdir = './'
    restart_mode = 'from_scratch'
    etot_conv_thr = 1.d-6
    forc_conv_thr = 1.d-5
    
/

&system
    ibrav = 0
    nat = 148
    ntyp = 2
    ecutwfc = 80
    occupations = 'smearing'
    smearing = 'gaussian'
    degauss = 0.1
    vdw_corr='grimme-d2'
/

&electrons
    diagonalization = 'david'
    diago_thr_init = 1.d-4
    mixing_mode = 'local-TF'
    mixing_beta = 0.7
    conv_thr =  1.d-8
    	

/	

&ions
    
/


ATOMIC_SPECIES
Cu 63.546 Cu.pbe-n-van_ak.UPF
C   12.0107 C.pbe-mt_gipaw.UPF



ATOMIC_POSITIONS angstrom
Cu       0.000000000   0.000481774   7.354944377
Cu       1.844444618   1.704208599   7.355922824
Cu       3.689036991   0.000293219   7.355116243
Cu       5.533629365   1.704208599   7.355922824
Cu       0.000000000   3.407498551   7.356366361
Cu       1.844392012   5.111268536   7.355342630
Cu       3.689036991   3.407737649   7.355811434
Cu       5.533681971   5.111268536   7.355342630
Cu       0.000000000   6.815502939   7.354594460
Cu       1.844655220   8.519806535   7.355019799
Cu       3.689036991   6.815431570   7.354692799
Cu       5.533418763   8.519806535   7.355019799
Cu       0.000000000  10.223495243   7.355652674
Cu       1.844553347  11.927081781   7.356061735
Cu       3.689036991  10.223867266   7.356050273
Cu       5.533520636  11.927081781   7.356061735
Cu       0.000000000  13.630891289   7.355312478
Cu       1.844534268  15.334962550   7.354668387
Cu       3.689036991  13.630526039   7.355265060
Cu       5.533539715  15.334962550   7.354668387
Cu       0.000000000   1.703001064   9.188103621
Cu       1.844551641  -0.000656987   9.186838380
Cu       3.689036991   1.703618136   9.187598946
Cu       5.533522342  -0.000656987   9.186838380
Cu       0.000000000   5.112765047   9.187252121
Cu       1.844492573   3.408085979   9.188012296
Cu       3.689036991   5.112142508   9.187106311
Cu       5.533581410   3.408085979   9.188012296
Cu       0.000000000   8.519054187   9.186831851
Cu       1.844553222   6.815756159   9.186395953
Cu       3.689036991   8.518593413   9.186818397
Cu       5.533520761   6.815756159   9.186395953
Cu       0.000000000  11.927365459   9.187692752
Cu       1.844578869  10.222784263   9.187783978
Cu       3.689036991  11.927708154   9.188360855
Cu       5.533495114  10.222784263   9.187783978
Cu       0.000000000  15.335149416   9.186449077
Cu       1.844524981  13.631895719   9.187160629
Cu       3.689036991  15.335264866   9.186449364
Cu       5.533549002  13.631895719   9.187160629
Cu       0.000000000  -0.001977434  11.029944959
Cu       1.844896995   1.702460351  11.028234852
Cu       3.689036991  -0.001482164  11.029087974
Cu       5.533176988   1.702460351  11.028234852
Cu       0.000000000   3.408622070  11.027222421
Cu       1.844853635   5.113656854  11.028978940
Cu       3.689036991   3.408503535  11.028966292
Cu       5.533220348   5.113656854  11.028978940
Cu       0.000000000   6.816274152  11.030145401
Cu       1.844284926   8.517745041  11.029362839
Cu       3.689036991   6.815731361  11.029849980
Cu       5.533789057   8.517745041  11.029362839
Cu       0.000000000  10.222049600  11.028844830
Cu       1.844176224  11.928018374  11.027988865
Cu       3.689036991  10.221788484  11.027780589
Cu       5.533897759  11.928018374  11.027988865
Cu       0.000000000  13.632897576  11.028858783
Cu       1.844477470  15.335447020  11.029887228
Cu       3.689036991  13.633313986  11.029352229
Cu       5.533596513  15.335447020  11.029887228
Cu       0.000000000   1.704808545  12.865444827
Cu       1.845169231  -0.000806342  12.871753091
Cu       3.689036991   1.701502487  12.868763035
Cu       5.532904752  -0.000806342  12.871753091
Cu       0.000000000   5.111345997  12.868778623
Cu       1.846630681   3.408262798  12.865600226
Cu       3.689036991   5.113831501  12.872285506
Cu       5.531443302   3.408262798  12.865600226
Cu       0.000000000   8.518339583  12.873800598
Cu       1.844638848   6.815785061  12.873927374
Cu       3.689036991   8.519183360  12.870789475
Cu       5.533435135   6.815785061  12.873927374
Cu       0.000000000  11.928628582  12.867554784
Cu       1.842720297  10.222520730  12.866657287
Cu       3.689036991  11.926630733  12.864528076
Cu       5.535353686  10.222520730  12.866657287
Cu       0.000000000  15.334272866  12.874819225
Cu       1.843531320  13.632089044  12.870003814
Cu       3.689036991  15.336123446  12.874095758
Cu       5.534542663  13.632089044  12.870003814
Cu       0.000000000   0.007158562  14.685287625
Cu       1.846580799   1.707355105  14.683598957
Cu       3.689036991   0.000659272  14.696678576
Cu       5.531493184   1.707355105  14.683598957
Cu       0.000000000   3.407631258  14.681982859
Cu       1.850299066   5.107248293  14.687224236
Cu       3.689036991   3.403979183  14.688458535
Cu       5.527774917   5.107248293  14.687224236
Cu       0.000000000   6.806780030  14.691102051
Cu       1.838543944   8.523293712  14.688790600
Cu       3.689036991   6.822571250  14.694040281
Cu       5.539530039   8.523293712  14.688790600
Cu       0.000000000  10.229673745  14.690695480
Cu       1.844268801  11.925335667  14.682355553
Cu       3.689036991  10.224295598  14.682051967
Cu       5.533805182  11.925335667  14.682355553
Cu       0.000000000  13.626649127  14.695683121
Cu       1.842839666  15.334090491  14.690299343
Cu       3.689036991  13.626281242  14.683443961
Cu       5.535234317  15.334090491  14.690299343
C        0.000000000   0.710354229  17.629784658
C        0.000000000   2.129763206  17.638061713
C        1.229648506   0.000405804  17.623584047
C        1.228274766   2.839724940  17.627930893
C        2.457779784   0.709893430  17.611125906
C        2.457860865   2.129869551  17.607946709
C        3.689036991  -0.000699539  17.600579627
C        3.689036991   2.840189453  17.597935068
C        4.920294198   0.709893430  17.611125906
C        4.920213117   2.129869551  17.607946709
C        6.148425477   0.000405804  17.623584047
C        6.149799217   2.839724940  17.627930893
C        0.000000000   4.969417784  17.633311457
C        0.000000000   6.389131247  17.617957293
C        1.228124109   4.259520424  17.625494682
C        1.230446182   7.099267392  17.618376398
C        2.458385596   4.969778536  17.609129592
C        2.458247097   6.389805961  17.615637824
C        3.689036991   4.259918527  17.602836637
C        3.689036991   7.100098259  17.611330811
C        4.919688386   4.969778536  17.609129592
C        4.919826885   6.389805961  17.615637824
C        6.149949874   4.259520424  17.625494682
C        6.147627801   7.099267392  17.618376398
C        0.000000000   9.228984529  17.606159148
C        0.000000000  10.648763738  17.596707528
C        1.230263753   8.519297958  17.610491339
C        1.231313097  11.359276681  17.608154980
C        2.460783179   9.229748776  17.623173802
C        2.460511953  10.649581372  17.627950614
C        3.689036991   8.519932398  17.629080104
C        3.689036991  11.359529718  17.638278832
C        4.917290803   9.229748776  17.623173802
C        4.917562029  10.649581372  17.627950614
C        6.147810230   8.519297958  17.610491339
C        6.146760886  11.359276681  17.608154980
C        0.000000000  13.489889750  17.597747287
C        0.000000000  14.909784617  17.614238869
C        1.231356932  12.779232136  17.609727648
C        1.229343151  15.619363212  17.614699816
C        2.459797576  13.488751524  17.625685374
C        2.460142595  14.908681678  17.617453611
C        3.689036991  12.778830154  17.634088457
C        3.689036991  15.618311185  17.619024462
C        4.918276406  13.488751524  17.625685374
C        4.917931387  14.908681678  17.617453611
C        6.146717051  12.779232136  17.609727648
C        6.148730832  15.619363212  17.614699816



K_POINTS automatic
4 2 1  0 0 0

CELL_PARAMETERS angstrom
7.378073983 0.000000000 0.0000000000
0.000000000 17.038932 0.0000000000
0.000000000 0.000000000 25.00
