&control
    calculation = 'relax'
    prefix = 'gc'
    pseudo_dir = '/home/549/hxw549/Short/pseudopotentials/'
    outdir = './'
    restart_mode = 'from_scratch'
    etot_conv_thr = 1.d-6
    forc_conv_thr = 1.d-5
    
/

&system
    ibrav = 0
    nat = 149
    ntyp = 3
    ecutwfc = 80
    occupations = 'smearing'
    smearing = 'gaussian'
    degauss = 0.1
    vdw_corr='grimme-d2'
/

&electrons
    diagonalization = 'david'
    diago_thr_init = 1.d-4
    mixing_mode = 'local-TF'
    mixing_beta = 0.7
    conv_thr =  1.d-8
    	

/	

&ions
    
/


ATOMIC_SPECIES
Cu 63.546 Cu.pbe-n-van_ak.UPF
C   12.0107 C.pbe-mt_gipaw.UPF
H  1.007825032 H.pbe-van_ak.UPF


ATOMIC_POSITIONS angstrom
Cu      -0.000155043   0.001598162   7.364309053
Cu       1.844518267   1.705878419   7.364542875
Cu       3.688968028   0.001636455   7.364404100
Cu       5.533496395   1.705811956   7.364335633
Cu       0.000109022   3.408609534   7.363619236
Cu       1.844471557   5.111336135   7.361161702
Cu       3.689045452   3.408593130   7.362799556
Cu       5.533849982   5.111324202   7.361063563
Cu       0.000204454   6.814874039   7.360197252
Cu       1.844698185   8.518393483   7.361396652
Cu       3.689111276   6.814686712   7.359984477
Cu       5.533602893   8.518344465   7.361273463
Cu      -0.000023000  10.221244308   7.363652910
Cu       1.844554173  11.923927291   7.365514306
Cu       3.689132948  10.221363645   7.363970332
Cu       5.533405537  11.924319201   7.365190744
Cu       0.000084782  13.628413678   7.365086738
Cu       1.844257601  15.334656388   7.364380380
Cu       3.688691562  13.628391366   7.364985908
Cu       5.533513528  15.334373057   7.364138018
Cu       0.000215587   1.706607241   9.197723920
Cu       1.844710017   0.001437869   9.195752069
Cu       3.689356723   1.707555885   9.197877916
Cu       5.533591154   0.001470761   9.195695577
Cu       0.000589868   5.114203695   9.196401760
Cu       1.845041863   3.411466488   9.198077406
Cu       3.689564982   5.113614967   9.195605078
Cu       5.533888194   3.411460311   9.197716298
Cu       0.000509958   8.515983814   9.195644110
Cu       1.845150636   6.814855388   9.194787829
Cu       3.689621463   8.515518070   9.195831502
Cu       5.534035188   6.814805639   9.194369676
Cu       0.000234405  11.922300558   9.198316482
Cu       1.845160406  10.218003779   9.198434763
Cu       3.689286277  11.922355264   9.199322959
Cu       5.533748965  10.218042355   9.198223452
Cu       0.000034959  15.334489339   9.194809871
Cu       1.844656231  13.628337262   9.196472553
Cu       3.689082406  15.334360220   9.194486055
Cu       5.533597790  13.628263236   9.196369928
Cu       0.000554837  -0.000631668  11.035780688
Cu       1.846009590   1.706662930  11.037394375
Cu       3.689667079  -0.000394495  11.034834027
Cu       5.533715514   1.707077203  11.037596412
Cu       0.000889783   3.413685678  11.038899861
Cu       1.846423649   5.117913713  11.042122583
Cu       3.690262528   3.415532188  11.041706355
Cu       5.534419391   5.118045365  11.042106220
Cu       0.000963840   6.816770661  11.042521734
Cu       1.846128881   8.512272551  11.042460586
Cu       3.690679367   6.814544697  11.043266588
Cu       5.534670332   8.511856256  11.042684401
Cu       0.001152087  10.214348537  11.041155724
Cu       1.845514993  11.921314372  11.038502772
Cu       3.690244067  10.212494666  11.042566468
Cu       5.534326213  11.921096922  11.038440896
Cu       0.000500140  13.628881770  11.035410984
Cu       1.844900128  15.334391519  11.035106922
Cu       3.689719173  13.630419336  11.036057722
Cu       5.534138611  15.334375266  11.034845598
Cu       0.001197677   1.704482786  12.869243311
Cu       1.846499271  -0.002147189  12.874932762
Cu       3.690453203   1.701521476  12.873734544
Cu       5.533914810  -0.002165274  12.874429597
Cu       0.002383327   5.117136920  12.883171647
Cu       1.850280672   3.414627242  12.877643045
Cu       3.691076459   5.122617510  12.896481971
Cu       5.530698544   3.414172270  12.877541617
Cu       0.001925599   8.512587984  12.894452175
Cu       1.849264916   6.815725174  12.895430005
Cu       3.691437667   8.505765774  12.896015279
Cu       5.533339133   6.815950170  12.898815661
Cu       0.001598252  11.923850384  12.874235549
Cu       1.845604561  10.212289525  12.881390965
Cu       3.690866895  11.924094298  12.869642118
Cu       5.536541894  10.212578138  12.880662738
Cu       0.001186879  15.332634543  12.876821625
Cu       1.844604465  13.631079790  12.873578428
Cu       3.690076608  15.335961629  12.877460239
Cu       5.536080310  13.631160032  12.873430349
Cu       0.001763252   0.001855818  14.686841495
Cu       1.844693214   1.702372882  14.684424896
Cu       3.690164828  -0.000129841  14.700776332
Cu       5.536238875   1.702519862  14.684113746
Cu       0.001786901   3.407137407  14.674160543
Cu       1.865215544   5.110507827  14.723183932
Cu       3.690323018   3.391231220  14.697424226
Cu       5.520807524   5.105575480  14.707843726
Cu       0.006803393   6.801319190  14.711632972
Cu       1.847986820   8.516171495  14.722932628
Cu       3.691027989   6.821994380  14.764495553
Cu       5.535529373   8.521524353  14.718549998
Cu       0.003380356  10.227405299  14.700517303
Cu       1.843826239  11.927384849  14.682818691
Cu       3.690876665  10.228471105  14.684209203
Cu       5.538858377  11.926154502  14.682117887
Cu       0.001316174  13.629521126  14.698200929
Cu       1.846067526  15.332994260  14.693880598
Cu       3.691371923  13.625684567  14.684806463
Cu       5.535084212  15.333903503  14.693159794
C       -0.001760345   0.713074496  17.622010342
C       -0.003652807   2.129628672  17.599514764
C        1.227475497   0.002994093  17.623861498
C        1.227609009   2.836140190  17.561100279
C        2.456167830   0.712099074  17.607533436
C        2.458551620   2.128426442  17.578085857
C        3.687028392   0.001918722  17.601045738
C        3.684923480   2.841716012  17.546533870
C        4.917426117   0.712783427  17.601085542
C        4.919856200   2.131518820  17.573883157
C        6.146441190   0.004091488  17.619983260
C        6.149364270   2.842870192  17.573726478
C        0.000767959   4.969816487  17.547525261
C        0.001144683   6.395733576  17.487171018
C        1.231242600   4.253395807  17.544496828
C        1.208188589   7.111851438  17.603468637
C        2.453570740   4.949646361  17.606735786
C        2.411142366   6.366585545  18.095525656
C        3.684468827   4.260437210  17.562843088
C        3.735169530   7.123357972  18.115700325
H        3.884953188   7.187122995  19.195744499
C        4.920369073   4.980350865  17.557143222
C        4.938921154   6.385265778  17.612814013
C        6.152226903   4.263003455  17.538745173
C        6.143009012   7.098979811  17.515944913
C       -0.005244562   9.229830767  17.536028289
C       -0.002313347  10.653831313  17.543106051
C        1.225133299   8.520132435  17.561593698
C        1.229116225  11.363669535  17.562342669
C        2.466733366   9.231017643  17.595387401
C        2.461593399  10.655939388  17.569222409
C        3.694052811   8.551822061  17.664136346
C        3.685351631  11.366634601  17.593038723
C        4.910952882   9.239022214  17.577900581
C        4.915923082  10.661074333  17.562034806
C        6.147737378   8.526926768  17.565620884
C        6.146434317  11.366134185  17.561197686
C       -0.002645444  13.494960958  17.589952897
C       -0.002352181  14.914448116  17.616425816
C        1.229442566  12.783571169  17.590814967
C        1.226854339  15.622940173  17.619421200
C        2.457286642  13.494540510  17.617281638
C        2.457410134  14.913387449  17.620729026
C        3.686499611  12.784974715  17.614767021
C        3.686724467  15.621716633  17.622478193
C        4.916189555  13.494404800  17.614450179
C        4.915639478  14.913439905  17.618211539
C        6.144851940  12.783655901  17.588684959
C        6.146112615  15.623081990  17.616772799

K_POINTS automatic
4 2 1  0 0 0

CELL_PARAMETERS angstrom
7.378073983 0.000000000 0.0000000000
0.000000000 17.038932 0.0000000000
0.000000000 0.000000000 25.00
