&control
    calculation = 'scf'
    prefix = 'gc'
    pseudo_dir = '/home/549/hxw549/Short/pseudopotentials/'
    outdir = './'
    restart_mode = 'from_scratch'
    etot_conv_thr = 1.d-6
    forc_conv_thr = 1.d-5
    
/

&system
    ibrav = 0
    nat = 148
    ntyp = 3
    ecutwfc = 80
    occupations = 'smearing'
    smearing = 'gaussian'
    degauss = 0.1
    vdw_corr='grimme-d2'
    tot_charge=1
/

&electrons
    diagonalization = 'david'
    diago_thr_init = 1.d-4
    mixing_mode = 'local-TF'
    mixing_beta = 0.7
    conv_thr =  1.d-8
    	

/	

&ions
    
/


ATOMIC_SPECIES
Cu 63.546 Cu.pbe-n-van_ak.UPF
C_h 12.0107 C.star1s-pbe-mt_gipaw.UPF
C   12.0107 C.pbe-mt_gipaw.UPF



ATOMIC_POSITIONS angstrom
Cu       0.000000000   0.000418475   7.356821029
Cu       1.844464273   1.704158296   7.358113474
Cu       3.689036991   0.000230648   7.357039041
Cu       5.533609710   1.704158296   7.358113474
Cu       0.000000000   3.407517063   7.358466518
Cu       1.844400743   5.111308876   7.357351579
Cu       3.689036991   3.407727228   7.358240984
Cu       5.533673240   5.111308876   7.357351579
Cu       0.000000000   6.815511010   7.356398114
Cu       1.844634168   8.519772057   7.356953132
Cu       3.689036991   6.815461467   7.356476022
Cu       5.533439815   8.519772057   7.356953132
Cu       0.000000000  10.223468654   7.358028091
Cu       1.844539688  11.927112673   7.358331490
Cu       3.689036991  10.223807389   7.358156514
Cu       5.533534295  11.927112673   7.358331490
Cu       0.000000000  13.630948247   7.357392531
Cu       1.844550038  15.334971289   7.356489427
Cu       3.689036991  13.630621770   7.357247606
Cu       5.533523945  15.334971289   7.356489427
Cu       0.000000000   1.702907129   9.191341473
Cu       1.844438909  -0.000744907   9.189954839
Cu       3.689036991   1.703551598   9.190679517
Cu       5.533635074  -0.000744907   9.189954839
Cu       0.000000000   5.112847222   9.190428845
Cu       1.844425335   3.408148815   9.191205379
Cu       3.689036991   5.112276176   9.190183685
Cu       5.533648648   3.408148815   9.191205379
Cu       0.000000000   8.518829327   9.189889741
Cu       1.844504161   6.815753367   9.189500749
Cu       3.689036991   8.518549154   9.189981167
Cu       5.533569822   6.815753367   9.189500749
Cu       0.000000000  11.927416048   9.190800411
Cu       1.844637084  10.222684267   9.190965266
Cu       3.689036991  11.927804152   9.191618641
Cu       5.533436899  10.222684267   9.190965266
Cu       0.000000000  15.335321394   9.189510302
Cu       1.844637124  13.632015116   9.190283899
Cu       3.689036991  15.335146265   9.189503368
Cu       5.533436859  13.632015116   9.190283899
Cu       0.000000000  -0.002347759  11.033396523
Cu       1.844683866   1.702259156  11.031458639
Cu       3.689036991  -0.001519276  11.032267751
Cu       5.533390117   1.702259156  11.031458639
Cu       0.000000000   3.408857710  11.030642113
Cu       1.844768883   5.113909116  11.032291860
Cu       3.689036991   3.408593163  11.031802605
Cu       5.533305100   5.113909116  11.032291860
Cu       0.000000000   6.816453312  11.033573094
Cu       1.844303176   8.517491616  11.032710091
Cu       3.689036991   6.815593925  11.033225129
Cu       5.533770807   8.517491616  11.032710091
Cu       0.000000000  10.221917940  11.031744996
Cu       1.844415754  11.928144920  11.031178595
Cu       3.689036991  10.221406937  11.031213977
Cu       5.533658229  11.928144920  11.031178595
Cu       0.000000000  13.632997106  11.031923194
Cu       1.844467030  15.335513963  11.033238175
Cu       3.689036991  13.633767403  11.032805114
Cu       5.533606953  15.335513963  11.033238175
Cu       0.000000000   1.704875650  12.867934385
Cu       1.845321668  -0.000954660  12.875092349
Cu       3.689036991   1.701417347  12.871776807
Cu       5.532752315  -0.000954660  12.875092349
Cu       0.000000000   5.111525457  12.871831684
Cu       1.846671710   3.408325014  12.868243939
Cu       3.689036991   5.113751396  12.875711780
Cu       5.531402273   3.408325014  12.868243939
Cu       0.000000000   8.518568354  12.877323819
Cu       1.844681040   6.815796680  12.877568455
Cu       3.689036991   8.518723412  12.874088368
Cu       5.533392943   6.815796680  12.877568455
Cu       0.000000000  11.928716179  12.870367591
Cu       1.842628110  10.222406618  12.869377470
Cu       3.689036991  11.926587526  12.866795139
Cu       5.535445873  10.222406618  12.869377470
Cu       0.000000000  15.333645149  12.878438474
Cu       1.843357431  13.632293836  12.873121412
Cu       3.689036991  15.336814532  12.877692087
Cu       5.534716552  13.632293836  12.873121412
Cu       0.000000000   0.007917974  14.687318150
Cu       1.846771772   1.707766144  14.685965650
Cu       3.689036991   0.000984897  14.700568619
Cu       5.531302211   1.707766144  14.685965650
Cu       0.000000000   3.407473856  14.683679325
Cu       1.850746496   5.106622004  14.689953189
Cu       3.689036991   3.403544200  14.692223105
Cu       5.527327487   5.106622004  14.689953189
Cu       0.000000000   6.806050961  14.694111852
Cu       1.838080764   8.523830065  14.691694563
Cu       3.689036991   6.823063270  14.697547063
Cu       5.539993219   8.523830065  14.691694563
Cu       0.000000000  10.230366392  14.694390747
Cu       1.844173456  11.925111814  14.684617429
Cu       3.689036991  10.224581410  14.683695270
Cu       5.533900527  11.925111814  14.684617429
Cu       0.000000000  13.626061327  14.699493142
Cu       1.842719093  15.333986336  14.693533347
Cu       3.689036991  13.625683241  14.685205226
Cu       5.535354890  15.333986336  14.693533347
C        0.000000000   0.710480657  17.625386117
C        0.000000000   2.129994783  17.634123029
C        1.229425460   0.000320977  17.617690007
C        1.228375583   2.839795767  17.623815585
C        2.457811762   0.709899315  17.604200808
C        2.457842752   2.129775886  17.601740771
C        3.689036991  -0.000603345  17.593524322
C        3.689036991   2.840024919  17.591092369
C        4.920262220   0.709899315  17.604200808
C        4.920231230   2.129775886  17.601740771
C        6.148648523   0.000320977  17.617690007
C        6.149698400   2.839795767  17.623815585
C        0.000000000   4.969253366  17.628070084
C        0.000000000   6.388967846  17.612170705
C        1.228271187   4.259528860  17.620937268
C        1.230240519   7.099286667  17.611657488
C        2.458443888   4.969859069  17.602643948
C        2.458397003   6.389808595  17.608620661
C        3.689036991   4.259867347  17.595573641
C      3.689036991   7.100201309  17.604692956
C        4.919630094   4.969859069  17.602643948
C        4.919676979   6.389808595  17.608620661
C        6.149802796   4.259528860  17.620937268
C        6.147833464   7.099286667  17.611657488
C        0.000000000   9.229134521  17.598686238
C        0.000000000  10.648995568  17.589971090
C        1.230190473   8.519246232  17.603860742
C        1.231355762  11.359359108  17.602000991
C        2.460657871   9.229717785  17.618068300
C        2.460488616  10.649481002  17.623712035
C        3.689036991   8.520001451  17.622907345
C        3.689036991  11.359355542  17.634650696
C_h        4.917416111   9.229717785  17.618068300
C        4.917585366  10.649481002  17.623712035
C        6.147883510   8.519246232  17.603860742
C        6.146718221  11.359359108  17.602000991
C        0.000000000  13.489708798  17.590817762
C        0.000000000  14.909574070  17.606592100
C        1.231370325  12.779202422  17.603127410
C        1.229324681  15.619367815  17.608024663
C        2.459963907  13.488866414  17.620434265
C        2.460109581  14.908699225  17.611138635
C        3.689036991  12.778795233  17.630201440
C        3.689036991  15.618463298  17.611608756
C        4.918110075  13.488866414  17.620434265
C        4.917964401  14.908699225  17.611138635
C        6.146703658  12.779202422  17.603127410
C        6.148749302  15.619367815  17.608024663


K_POINTS automatic
4 2 1  0 0 0

CELL_PARAMETERS angstrom
7.378073983 0.000000000 0.0000000000
0.000000000 17.038932 0.0000000000
0.000000000 0.000000000 25.00
