&control
    calculation = 'scf'
    prefix = 'gc'
    pseudo_dir = '/home/549/hxw549/Short/pseudopotentials/'
    outdir = './'
    restart_mode = 'from_scratch'
    etot_conv_thr = 1.d-6
    forc_conv_thr = 1.d-5
    
/

&system
    ibrav = 0
    nat = 139
    ntyp = 5
    ecutwfc = 80
    occupations = 'smearing'
    smearing = 'gaussian'
    degauss = 0.1
    vdw_corr='xdm_a2'
    tot_charge = 1
/

&electrons
    diagonalization = 'david'
    diago_thr_init = 1.d-4
    mixing_mode = 'local-TF'
    mixing_beta = 0.7
    conv_thr =  1.d-8
    	

/	

&ions
    
/


ATOMIC_SPECIES
Cu 63.546 Cu.pbe-n-van_ak.UPF
C_h 12.0107 C.star1s-pbe-mt_gipaw.UPF
C   12.0107 C.pbe-mt_gipaw.UPF
O   15.9994 O.pbe-van_gipaw.UPF
H  1.007825032 H.pbe-van_ak.UPF



ATOMIC_POSITIONS angstrom
Cu      -0.008925079  -0.019119126   7.164754394
Cu       1.835333409   1.685655873   7.165529391
Cu       3.678242090  -0.018653610   7.166801616
Cu       5.523093744   1.682069010   7.165741970
Cu      -0.011334226   3.390396239   7.163205841
Cu       1.833784200   5.101795882   7.161070875
Cu       3.680648976   3.392407731   7.164755643
Cu       5.524429694   5.104587250   7.162168088
Cu      -0.008919352   6.820506882   7.164458119
Cu       1.836124214   8.533710290   7.169156364
Cu       3.678013540   6.817514664   7.163875341
Cu       5.522000954   8.532096390   7.170747076
Cu      -0.010616838  10.238665015   7.173918787
Cu       1.833108739  11.939478041   7.175314545
Cu       3.679685756  10.241025443   7.176259734
Cu       5.525078211  11.939621560   7.175681216
Cu      -0.010669902  13.634252931   7.168919310
Cu       1.835163696  15.323435270   7.166109251
Cu       3.679813025  13.632229145   7.172950592
Cu       5.523094719  15.325326194   7.167005770
Cu      -0.009437760   1.691286514   9.019641848
Cu       1.834191528  -0.011386113   9.027823742
Cu       3.679701026   1.691287464   9.020535521
Cu       5.524542297  -0.010438646   9.027992407
Cu      -0.009751166   5.105187648   9.009659264
Cu       1.834780421   3.397646379   9.014133413
Cu       3.679269917   5.107624584   9.009587299
Cu       5.524517568   3.397828978   9.013714414
Cu      -0.010352970   8.524661898   9.021394219
Cu       1.833384627   6.815527542   9.012738393
Cu       3.677886966   8.523263814   9.021943008
Cu       5.524094551   6.815133771   9.011896140
Cu      -0.010787577  11.936896364   9.034958171
Cu       1.833028872  10.230867397   9.028863704
Cu       3.678033433  11.934428886   9.033994642
Cu       5.523068094  10.231746850   9.030637904
Cu      -0.009587601  15.331065699   9.034077823
Cu       1.832378036  13.635859495   9.033719341
Cu       3.678287438  15.331252886   9.033371445
Cu       5.524330488  13.635397535   9.036148931
Cu      -0.010111023  -0.002285954  10.924544539
Cu       1.833115627   1.701668799  10.914748327
Cu       3.677973918  -0.003375656  10.920659660
Cu       5.525272506   1.701844696  10.915639768
Cu      -0.009749328   3.404785489  10.906133142
Cu       1.834037055   5.110195266  10.900247199
Cu       3.679383133   3.408535986  10.900842395
Cu       5.523457839   5.113036427  10.901654026
Cu      -0.011261043   6.813033716  10.904998330
Cu       1.830724291   8.524664570  10.917584763
Cu       3.677564291   6.813337424  10.904304372
Cu       5.522892164   8.520426337  10.910788865
Cu      -0.009579706  10.229843915  10.923247170
Cu       1.829342963  11.931421529  10.927964142
Cu       3.673422886  10.229468843  10.923483492
Cu       5.522869168  11.931645558  10.928894452
Cu      -0.008819073  13.631354407  10.939807219
Cu       1.832292546  15.325647782  10.938264383
Cu       3.672908056  13.627199677  10.928355157
Cu       5.522550179  15.331615286  10.929101663
Cu      -0.011722428   1.704698554  12.811673816
Cu       1.836669250   0.002526365  12.808919631
Cu       3.679080661   1.719205418  12.794372043
Cu       5.517114301  -0.000178781  12.813964808
Cu      -0.011613954   5.115216813  12.792759410
Cu       1.829059589   3.419856227  12.791307916
Cu       3.677560784   5.109346051  12.793548301
Cu       5.527635825   3.422299563  12.789379590
Cu      -0.014562558   8.515117525  12.797310625
Cu       1.833463150   6.808908197  12.790600569
Cu       3.676323672   8.511208241  12.789451204
Cu       5.518877554   6.814154074  12.802065160
Cu      -0.005154284  11.925264822  12.840771655
Cu       1.826532142  10.244369593  12.838207701
Cu       3.661403472  11.933617520  12.825187801
Cu       5.523774604  10.223766713  12.804918933
Cu      -0.010954588  15.342990565  12.821536642
Cu       1.826045457  13.599337012  12.864031129
Cu       3.672804846  15.326656846  12.812450415
Cu       5.521005973  13.627170705  12.815456273
Cu      -0.016418080   0.004406738  14.677805324
Cu       1.832292202   1.723503980  14.625220759
Cu       3.679680030   0.017349557  14.655635288
Cu       5.523111731   1.733850392  14.625725040
Cu      -0.006900884   3.426071659  14.650486533
Cu       1.834067953   5.116165006  14.645659303
Cu       3.673425743   3.419350769  14.646240317
Cu       5.518889556   5.110644469  14.647400526
Cu      -0.012761362   6.805751324  14.635330958
Cu       1.832820185   8.502582552  14.631180665
Cu       3.673916081   6.804855832  14.642804239
Cu       5.514075028   8.501229509  14.670679314
Cu      -0.041954182  10.195166247  14.648729560
Cu       1.822348493  11.907074380  14.848596886
Cu       3.699225061  10.203475844  14.607703000
Cu       5.511865958  11.935042428  14.665593642
Cu      -0.026291870  13.651588012  14.666543568
Cu       1.838741499  15.341227616  14.659578163
Cu       3.676662625  13.634466449  14.674729643
Cu       5.509421981  15.332227600  14.661915106
C        0.031618400   0.650980232  17.859888122
C        0.029193031   2.087136946  17.987293623
C        1.260678281  -0.032316023  17.782105589
C        1.260805811   2.792688283  18.023386993
C        2.490864530   0.647441294  17.850803336
C        2.489823981   2.082182331  17.973908285
C        3.722263966  -0.030080969  17.752606340
C        3.717579591   2.794300588  18.007708264
C        4.952442163   0.650656631  17.842276494
C        4.949733832   2.086611667  17.967471179
C        6.181388977  -0.031623914  17.775223356
C        6.177732400   2.798513448  18.024276276
C        0.031842129   4.935383918  18.065955119
C        0.032417661   6.364123826  18.019077791
C        1.260419428   4.223127424  18.067585031
C        1.255403504   7.096067765  17.989365431
C        2.485651037   4.946517929  18.070999711
C        2.483014528   6.381899337  18.041631697
C        3.712964175   4.225027984  18.058371648
C        3.709960143   7.100144601  18.013219089
C        4.939875561   4.939084294  18.055661314
C        4.935286804   6.367937758  18.027242338
C        6.174955307   4.228835818  18.063914730
C        6.173054487   7.053599417  17.984973842
C        0.001327148   9.182048711  17.820508812
C        1.243785962   8.538495628  17.875787702
C_h        2.481134049   9.271534062  17.824368797
C        3.718287465   8.542736755  17.912134751
C        4.961026990   9.173194337  17.769622451
C        6.171810129   8.472457088  17.861193135
H        1.258972764  -1.116683692  17.661026880
H        3.720781243  -1.114104660  17.640996522
H        6.182865294  -1.117257123  17.663600898
H       -0.043421689  10.264108921  17.759819417
H        5.013978207  10.243842249  17.622430336
C        2.460747308  10.721275318  17.622456063
O        1.608550025  11.365583403  16.923044012
O        3.443953284  11.448565663  18.235445400
H        3.391312066  12.361344943  17.865337497

K_POINTS automatic
4 2 1  0 0 0

CELL_PARAMETERS angstrom
7.378073983 0.000000000 0.0000000000
0.000000000 17.038932 0.0000000000
0.000000000 0.000000000 25.00
