&control
    calculation = 'relax'
    prefix = 'gc'
    pseudo_dir = '/home/549/hxw549/Short/pseudopotentials/'
    outdir = './'
    restart_mode = 'from_scratch'
    etot_conv_thr = 1.d-6
    forc_conv_thr = 1.d-5
/
&system
    ibrav = 0
    nat = 50
    ntyp = 2
    ecutwfc = 80
    occupations = 'smearing'
    smearing = 'gaussian'
    degauss = 0.1
    vdw_corr='grimme-d2'
    nspin = 2
    starting_magnetization(2) = 1
/
&electrons
    diagonalization = 'david'
    diago_thr_init = 1.d-4
    mixing_mode = 'local-TF'
    mixing_beta = 0.7
    conv_thr =  1.d-8
/	
&ions
/
ATOMIC_SPECIES
C   12.0107 C.pbe-mt_gipaw.UPF
H  1.007825032 H.pbe-van_ak.UPF
ATOMIC_POSITIONS angstrom
C -0.002323514 0.712057881 5.11974
C -0.001449459 2.130341832 5.10658
C 1.227088314 0.003216086 5.1239
C 1.226559553 2.839382905 5.08052
C 2.455948978 0.712498005 5.10688
C 2.456099256 2.130862482 5.08105
C 3.686560486 0.001972293 5.1008
C 3.687603910 2.845453981 5.06444
C 4.917702928 0.712632947 5.09855
C 4.918850288 2.131175693 5.07678
C 6.145986008 0.003022562 5.11842
C 6.149207928 2.839222575 5.07919
C -0.000079380 4.968527961 5.03148
C -0.000142085 6.388786583 4.99443
C 1.226157454 4.257508270 5.04145
C 1.231822133 7.096763659 5.03904
C 2.454158264 4.973162246 5.04675
H 2.441773223 6.381216808 7.08653
C 2.441773223 6.381216808 6.08653
C 3.688447291 4.259559479 5.06249
C 3.689809492 7.098427792 6.09076
H 3.701788840 7.084003469 7.00554
C 4.923114024 4.972659701 5.04293
C 4.935803643 6.381320281 5.07883
C 6.151252068 4.257573473 5.04004
C 6.146274162 7.096994620 5.03562
C -0.000551132 9.229305153 5.05347
C -0.001611831 10.654344655 5.04577
C 1.229323363 8.522970715 5.0578
C 1.228177890 11.365801750 5.06679
C 2.463276537 9.237872551 5.07576
C 2.458520624 10.658727228 5.07261
C 3.688134795 8.546912402 5.12215
C 3.686948500 11.366771253 5.09527
C 4.912821631 9.237925958 5.07718
C 4.915844341 10.658611660 5.071
C 6.147751899 8.523064878 5.05733
C 6.145854862 11.365925515 5.06155
C -0.002600589 13.495164826 5.09041
C -0.002788758 14.914154429 5.11446
C 1.228206975 12.785129117 5.09411
C 1.226588075 15.623058948 5.11946
C 2.456902849 13.493952581 5.1169
C 2.457001279 14.913031065 5.12106
C 3.686263900 12.785829008 5.11282
C 3.686112791 15.621958814 5.12258
C 4.915483831 13.494045800 5.11434
C 4.915190305 14.913074888 5.11838
C 6.144535337 12.785443338 5.09014
C 6.145895168 15.622843339 5.11699
K_POINTS automatic
2 2 1  0 0 0
CELL_PARAMETERS angstrom
7.378073983 0.000000000 0.0000000000
0.000000000 17.038932 0.0000000000
0.000000000 0.000000000 10.00
