&control
    calculation = 'relax'
    prefix = 'graphene'
    pseudo_dir = '/home/549/hxw549/Short/pseudopotentials/'
    outdir = './'
    restart_mode = 'from_scratch'
    etot_conv_thr = 1.d-6
    forc_conv_thr = 1.d-5
/

&system
    ibrav = 0 
    nat = 60
    ntyp = 1
    ecutwfc = 40
    ecutrho = 180
    occupations = 'smearing'
    smearing = 'gaussian'
    degauss = 0.1
    tot_charge = 1
    
    vdw_corr='grimme-d2'
/

&electrons
    diagonalization = 'david'
    diago_thr_init = 1.d-4
    mixing_mode = 'plain'
    mixing_beta = 0.7
    conv_thr =  1.d-10
/	

&ions

/


ATOMIC_SPECIES
C   12.0107 C.pbe-mt_gipaw.UPF

ATOMIC_POSITIONS crystal
C       0.11111111      0.06666667      0.50000000
C       0.05555556      0.13333333      0.50000000
C       0.27777778      0.06666667      0.50000000
C       0.22222222      0.13333333      0.50000000
C       0.44444444      0.06666667      0.50000000
C       0.38888889      0.13333333      0.50000000
C       0.61111111      0.06666667      0.50000000
C       0.55555556      0.13333333      0.50000000
C       0.77777778      0.06666667      0.50000000
C       0.72222222      0.13333333      0.50000000
C       0.94444444      0.06666667      0.50000000
C       0.88888889      0.13333333      0.50000000
C       0.11111111      0.26666667      0.50000000
C       0.05555556      0.33333333      0.50000000
C       0.27777778      0.26666667      0.50000000
C       0.22222222      0.33333333      0.50000000
C       0.44444444      0.26666667      0.50000000
C       0.38888889      0.33333333      0.50000000
C       0.61111111      0.26666667      0.50000000
C       0.55555556      0.33333333      0.50000000
C       0.77777778      0.26666667      0.50000000
C       0.72222222      0.33333333      0.50000000
C       0.94444444      0.26666667      0.50000000
C       0.88888889      0.33333333      0.50000000
C       0.11111111      0.46666667      0.50000000
C       0.05555556      0.53333333      0.50000000
C       0.27777778      0.46666667      0.50000000
C       0.22222222      0.53333333      0.50000000
C       0.44444444      0.46666667      0.50000000
C       0.38888889      0.53333333      0.50000000
C       0.61111111      0.46666667      0.50000000
C       0.55555556      0.53333333      0.50000000
C       0.77777778      0.46666667      0.50000000
C       0.72222222      0.53333333      0.50000000
C       0.94444444      0.46666667      0.50000000
C       0.88888889      0.53333333      0.50000000
C       0.11111111      0.66666667      0.50000000
C       0.05555556      0.73333333      0.50000000
C       0.27777778      0.66666667      0.50000000
C       0.22222222      0.73333333      0.50000000
C       0.44444444      0.66666667      0.50000000
C       0.38888889      0.73333333      0.50000000
C       0.61111111      0.66666667      0.50000000
C       0.55555556      0.73333333      0.50000000
C       0.77777778      0.66666667      0.50000000
C       0.72222222      0.73333333      0.50000000
C       0.94444444      0.66666667      0.50000000
C       0.88888889      0.73333333      0.50000000
C       0.11111111      0.86666667      0.50000000
C       0.05555556      0.93333333      0.50000000
C       0.27777778      0.86666667      0.50000000
C       0.22222222      0.93333333      0.50000000
C       0.44444444      0.86666667      0.50000000
C       0.38888889      0.93333333      0.50000000
C       0.61111111      0.86666667      0.50000000
C       0.55555556      0.93333333      0.50000000
C       0.77777778      0.86666667      0.50000000
C       0.72222222      0.93333333      0.50000000
C       0.94444444      0.86666667      0.50000000
C       0.88888889      0.93333333      0.50000000



K_POINTS automatic
1 1 1 0 0 0


CELL_PARAMETERS angstrom
14.59434678 0.000000000 0.0000000000
-6.319539258 10.9457631 0.0000000000
0.000000000 0.000000000 10.0000000000
