&control
    calculation = 'relax'
    prefix = 'gc'
    pseudo_dir = '/home/549/hxw549/Short/pseudopotentials/'
    outdir = './'
    restart_mode = 'from_scratch'
    etot_conv_thr = 1.d-6
    forc_conv_thr = 1.d-5
    
/

&system
    ibrav = 0
    nat = 151
    ntyp = 4
    ecutwfc = 80
    occupations = 'smearing'
    smearing = 'gaussian'
    degauss = 0.1
    vdw_corr='grimme-d2'
/

&electrons
    diagonalization = 'david'
    diago_thr_init = 1.d-4
    mixing_mode = 'local-TF'
    mixing_beta = 0.7
    conv_thr =  1.d-8
    	

/	

&ions
    
/


ATOMIC_SPECIES
Cu 63.546 Cu.pbe-n-van_ak.UPF
C_h 12.0107 C.star1s-pbe-mt_gipaw.UPF
C   12.0107 C.pbe-mt_gipaw.UPF
O   15.9994 O.pbe-van_gipaw.UPF

ATOMIC_POSITIONS angstrom
Cu       0.004384012  -0.028378650   7.327069903
Cu       1.853098882   1.656014660   7.335554657
Cu       3.694799958  -0.032984412   7.328756085
Cu       5.537397087   1.656685763   7.334421378
Cu       0.006257247   3.365913220   7.345912275
Cu       1.849524971   5.091457531   7.360822404
Cu       3.695406050   3.367365074   7.345833290
Cu       5.540642656   5.090375371   7.357760858
Cu       0.007839739   6.816610789   7.361881404
Cu       1.849008515   8.543760753   7.356152295
Cu       3.694229206   6.816650513   7.365302887
Cu       5.540802050   8.544282623   7.353867832
Cu       0.005620444  10.272752369   7.338428983
Cu       1.852870286  11.985446345   7.327298455
Cu       3.695635727  10.272165202   7.338443388
Cu       5.537015349  11.986136906   7.325529953
Cu       0.004723937  13.671332363   7.321645981
Cu       1.846483219  15.341616385   7.320178127
Cu       3.694081322  13.674983200   7.321895050
Cu       5.540441158  15.340212049   7.323502520
Cu       0.006224087   1.643025196   9.178175616
Cu       1.850423592  -0.039455072   9.188576095
Cu       3.695671723   1.646097000   9.176544100
Cu       5.538335172  -0.034897437   9.192814436
Cu       0.006263046   5.077200462   9.169431044
Cu       1.851287170   3.348120556   9.166612061
Cu       3.699729778   5.075434442   9.168639081
Cu       5.541523972   3.349843373   9.169540387
Cu       0.006541150   8.563951698   9.162182790
Cu       1.847916551   6.820230233   9.173283596
Cu       3.698598720   8.564822024   9.162047356
Cu       5.544040209   6.819352824   9.165435053
Cu       0.006078023  11.996961251   9.169220292
Cu       1.850913691  10.292385906   9.156975919
Cu       3.695140693  11.996395618   9.167489931
Cu       5.541105708  10.291912181   9.158528341
Cu       0.002063344  15.338760566   9.202317547
Cu       1.849521087  13.678860955   9.182605377
Cu       3.696054074  15.336611720   9.197261882
Cu       5.538608944  13.672725653   9.189371266
Cu       0.003616936  -0.035887315  11.076627929
Cu       1.851512473   1.633445699  11.029308755
Cu       3.695406671  -0.040650305  11.065809207
Cu       5.538756233   1.640912093  11.039075633
Cu       0.006535756   3.335653222  11.000501146
Cu       1.851142407   5.067314643  10.968128399
Cu       3.700489228   3.333926043  10.996141337
Cu       5.544420491   5.069665496  10.976076732
Cu       0.001844247   6.824990032  10.966045478
Cu       1.848869207   8.579279909  10.963698243
Cu       3.696226411   6.823508999  10.961596578
Cu       5.544934561   8.579086183  10.966553260
Cu       0.006170167  10.308074506  10.992461973
Cu       1.850707660  12.007011260  11.020949043
Cu       3.699921336  10.313858107  10.983696821
Cu       5.539984594  11.996193340  11.035343980
Cu       0.003229010  13.670069512  11.074996056
Cu       1.847489691  15.336019869  11.088781461
Cu       3.696310250  13.673896596  11.067760619
Cu       5.540911535  15.336535649  11.090125887
Cu       0.003788995   1.658848465  12.910150547
Cu       1.845763672  -0.023859673  12.960690524
Cu       3.699913874   1.643645534  12.899079910
Cu       5.543578845  -0.022690867  12.965384481
Cu       0.000158264   5.069262398  12.763381675
Cu       1.852641241   3.327176917  12.815367328
Cu       3.697269792   5.071135344  12.764924863
Cu       5.540634615   3.348119587  12.839936666
Cu      -0.002589558   8.584975612  12.765240455
Cu       1.839325876   6.828288080  12.736543331
Cu       3.697101726   8.592038698  12.750374596
Cu       5.534232524   6.833102401  12.752647893
Cu       0.003529351  11.979150566  12.913889063
Cu       1.848501705  10.321339854  12.810518991
Cu       3.701981400  11.984295949  12.905344227
Cu       5.544116052  10.293409137  12.845490866
Cu       0.003498418  15.334222302  12.990663715
Cu       1.847611216  13.655541187  12.959406559
Cu       3.696493212  15.337290754  12.974054581
Cu       5.543819777  13.655328293  12.965595008
Cu       0.006502368   0.019204319  14.834206100
Cu       1.859107857   1.713469611  14.768035808
Cu       3.696297515  -0.001844132  14.828427754
Cu       5.532559076   1.711315146  14.775639362
Cu      -0.009180528   3.396054030  14.687726827
Cu       1.805792009   5.061969398  14.496220277
Cu       3.703847552   3.401361564  14.655940322
Cu       5.571605907   5.111082997  14.566270823
Cu       0.001357461   6.831291518  14.530428922
Cu       1.806783493   8.595815877  14.503360152
Cu       3.710769125   6.878750542  14.384873497
Cu       5.567716956   8.541703287  14.599463662
Cu      -0.006144223  10.247284829  14.701266612
Cu       1.859756507  11.927906337  14.774417734
Cu       3.696513791  10.224590394  14.679717094
Cu       5.530976228  11.922390778  14.782601782
Cu       0.004082101  13.615778853  14.843804731
Cu       1.843028557  15.333966547  14.847416901
Cu       3.700425105  13.636454094  14.823315738
Cu       5.547213591  15.337383170  14.853876816
C       -0.002306265   0.742473925  18.253637767
C       -0.002785417   2.154637564  18.505256114
C        1.227696544   0.026771829  18.165309955
C        1.227340955   2.859460528  18.657344448
C        2.456580200   0.742713305  18.254457690
C        2.456816198   2.155564603  18.502578004
C        3.686973893   0.026782816  18.169587033
C        3.685214499   2.861812741  18.654117854
C        4.916959571   0.742930283  18.255322587
C        4.915720705   2.157340861  18.495425421
C        6.146034568   0.027721546  18.155949010
C        6.145412279   2.861498187  18.644452916
C       -0.003554491   4.968696697  19.073786763
C       -0.001821697   6.393209531  19.204731148
C        1.228464921   4.259234120  18.970087056
C        1.228111557   7.111053347  19.250377210
C        2.454421249   4.962667698  19.158066719
C        2.452877756   6.388458466  19.358471454
C        3.684266593   4.259627857  18.982476457
C        3.688277887   7.119252694  19.345058608
C        4.915095792   4.971130779  19.090845379
C        4.918079258   6.394794818  19.262386352
C        6.144755920   4.263985920  18.937963065
C        6.146486933   7.112962935  19.201353700
C       -0.000543737   9.239194148  18.908610667
C       -0.000924737  10.641331151  18.611068911
C        1.229423996   8.533647913  19.065362547
C        1.229012300  11.347664576  18.474186456
C        2.458852645   9.245116879  18.954952984
C        2.459023618  10.644157993  18.637913588
C        3.688321529   8.541466832  19.123378756
C        3.687588102  11.349952969  18.490810445
C        4.916188426   9.244272061  18.940617664
C        4.917148425  10.644547257  18.633068307
C        6.147690135   8.536004432  19.050736720
C        6.147198022  11.348607397  18.473236614
C       -0.000768866  13.477974804  18.136762679
C       -0.001118642  14.911866930  18.052940116
C        1.229409356  12.762660924  18.241243002
C        1.228240948  15.632978005  18.070197862
C        2.458354783  13.479473802  18.169560726
C        2.458363443  14.911947893  18.079438613
C        3.687970263  12.763635247  18.250914583
C        3.687440920  15.633497280  18.082590622
C        4.917334311  13.479239001  18.157230127
C        4.916934881  14.912216183  18.070034172
C        6.146524184  12.762019235  18.229969709
C        6.146627144  15.633470014  18.053323411
C        2.928201456   6.536467819  17.24452799
O        3.718311849   7.319805335  17.245089305
O        2.118311849   5.719805335  17.245089305



K_POINTS automatic
4 2 1  0 0 0

CELL_PARAMETERS angstrom
7.378073983 0.000000000 0.0000000000
0.000000000 17.038932 0.0000000000
0.000000000 0.000000000 25.00
