&control
    calculation = 'relax'
    prefix = 'gc'
    pseudo_dir = '/home/549/hxw549/Short/pseudopotentials/'
    outdir = './'
    restart_mode = 'from_scratch'
    etot_conv_thr = 1.d-6
    forc_conv_thr = 1.d-5
    
/

&system
    ibrav = 0
    nat = 149
    ntyp = 3
    ecutwfc = 80
    occupations = 'smearing'
    smearing = 'gaussian'
    degauss = 0.1
    vdw_corr='grimme-d2'
/

&electrons
    diagonalization = 'david'
    diago_thr_init = 1.d-4
    mixing_mode = 'local-TF'
    mixing_beta = 0.7
    conv_thr =  1.d-8
    	

/	

&ions
    
/


ATOMIC_SPECIES
Cu 63.546 Cu.pbe-n-van_ak.UPF
C   12.0107 C.pbe-mt_gipaw.UPF
H  1.007825032 H.pbe-van_ak.UPF


ATOMIC_POSITIONS angstrom
Cu       0.004842155  -0.006329688   7.360757654
Cu       1.849783687   1.695943614   7.357151622
Cu       3.694133646  -0.008500799   7.358384823
Cu       5.538471120   1.696707624   7.357527779
Cu       0.005369519   3.400494807   7.355681658
Cu       1.850514856   5.107209488   7.356380548
Cu       3.694151271   3.402117889   7.357931679
Cu       5.538821462   5.106488277   7.355483525
Cu       0.006024248   6.812437817   7.354134643
Cu       1.850623257   8.516944829   7.355264631
Cu       3.693781694   6.811851244   7.355606998
Cu       5.538711291   8.518587253   7.353621943
Cu       0.005599832  10.223260987   7.354081955
Cu       1.850007850  11.927422130   7.355476700
Cu       3.694333766  10.223194588   7.355699989
Cu       5.538847411  11.925242420   7.358919557
Cu       0.004499874  13.627370354   7.360873746
Cu       1.849111616  15.329681260   7.361284247
Cu       3.694960590  13.628028440   7.360186414
Cu       5.539060288  15.329845585   7.361123878
Cu       0.006453544   1.699629315   9.193159213
Cu       1.850425063  -0.003151206   9.196246584
Cu       3.694931061   1.695830265   9.188067895
Cu       5.540618379  -0.004889401   9.194067594
Cu       0.005976217   5.108592575   9.185874566
Cu       1.850301437   3.399506249   9.184890597
Cu       3.696824162   5.108870718   9.189895563
Cu       5.540265740   3.404154447   9.188757010
Cu       0.005395004   8.517483351   9.185160857
Cu       1.848710163   6.812297252   9.191337091
Cu       3.696554348   8.517971654   9.186505288
Cu       5.539563146   6.813936934   9.182579509
Cu       0.006172541  11.922676181   9.193502591
Cu       1.850613221  10.226077513   9.182545362
Cu       3.695697054  11.924574352   9.192775371
Cu       5.540237769  10.218373797   9.191046664
Cu       0.007491007  15.330088900   9.194901193
Cu       1.851205835  13.625892089   9.195277706
Cu       3.694726262  15.330229533   9.194520366
Cu       5.540180718  13.626921266   9.194949542
Cu       0.009229476  -0.004211370  11.036065300
Cu       1.849998808   1.705058341  11.036497930
Cu       3.696100153  -0.002396160  11.033638703
Cu       5.542961573   1.700827185  11.032164349
Cu       0.004461225   3.408558107  11.031129176
Cu       1.850146573   5.105277224  11.023186679
Cu       3.701161744   3.399467328  11.019973607
Cu       5.545321793   5.108169588  11.027706176
Cu       0.001308058   6.815522546  11.026578170
Cu       1.848006196   8.524161860  11.016753406
Cu       3.697697980   6.816524761  11.025444326
Cu       5.544381923   8.517617066  11.033741634
Cu       0.004835528  10.215701425  11.035618892
Cu       1.851156678  11.918219209  11.036504693
Cu       3.700807543  10.219556045  11.027828739
Cu       5.542033382  11.921975551  11.033878260
Cu       0.008885632  13.625815812  11.036539324
Cu       1.853363071  15.331117051  11.037371295
Cu       3.696221280  13.626104843  11.037304965
Cu       5.541712997  15.331426050  11.037264191
Cu       0.010111457   1.706408945  12.867873976
Cu       1.855095737   0.000825267  12.874091015
Cu       3.698954773   1.704269839  12.868165348
Cu       5.542121541   0.000185348  12.875766160
Cu       0.008538193   5.117157363  12.870504344
Cu       1.854265754   3.408363743  12.866721498
Cu       3.707087939   5.102237366  12.841671285
Cu       5.544792821   3.407302392  12.865513433
Cu       0.011230622   8.507922753  12.885697372
Cu       1.848432769   6.823381168  12.824017010
Cu       3.698967690   8.521144998  12.861712666
Cu       5.539156437   6.813320963  12.881872891
Cu       0.010268634  11.916958681  12.875980744
Cu       1.849193603  10.205979473  12.879189990
Cu       3.697116433  11.913736373  12.870019376
Cu       5.547623540  10.217689125  12.871296339
Cu       0.010599184  15.330011682  12.878774686
Cu       1.852340242  13.623348882  12.874103525
Cu       3.698087851  15.334078693  12.877232007
Cu       5.543810631  13.623682367  12.874931757
Cu       0.010963925   0.008189395  14.679463113
Cu       1.858594632   1.709278886  14.687974081
Cu       3.701420672   0.005701126  14.694242150
Cu       5.546435045   1.711184930  14.684739743
Cu       0.014019806   3.402569391  14.690266558
Cu       1.852017570   5.093885037  14.665789228
Cu       3.706387715   3.399020764  14.692857806
Cu       5.553978938   5.084908361  14.700892207
Cu      -0.014567164   6.808237597  14.719594578
Cu       1.854798691   8.511020299  14.707783400
Cu       3.743129964   6.812903566  14.673105337
Cu       5.550482061   8.532021034  14.704110773
Cu       0.012713150  10.214210525  14.707411330
Cu       1.851191681  11.913152981  14.687164176
Cu       3.698387496  10.214932427  14.697560025
Cu       5.544884134  11.916251043  14.687593546
Cu       0.011315753  13.620186471  14.695366072
Cu       1.855349889  15.332810695  14.685903277
Cu       3.696738182  13.616777378  14.678399769
Cu       5.544311448  15.330117030  14.688280276
C       -0.003619791   0.728359029  17.605104403
C       -0.003951915   2.146994137  17.638354865
C        1.225525763   0.017885460  17.594269382
C        1.224200694   2.858458874  17.666251280
C        2.453534038   0.729129974  17.588543146
C        2.453077526   2.148714720  17.625754963
C        3.684707959   0.017753335  17.569579920
C        3.683020167   2.860260355  17.641077343
C        4.915032337   0.729128714  17.586489937
C        4.913634805   2.148337191  17.613678802
C        6.144329375   0.018552893  17.591557047
C        6.144827137   2.856519389  17.640679814
C       -0.003486111   4.985050096  17.726931735
C       -0.001726630   6.404838064  17.737643417
C        1.226203932   4.276766731  17.730716719
C        1.228124158   7.113880354  17.788051575
C        2.454737179   4.985538704  17.786534875
C        2.454863069   6.403800714  17.836262676
C        3.682361663   4.278794165  17.708807117
C        3.683308898   7.115615527  17.798435157
H        2.429355351   6.362598277  15.515857384
C        4.914615583   4.986931216  17.707225829
C        4.913270657   6.406408030  17.746440247
C        6.145653614   4.276171614  17.678646083
C        6.143533565   7.114889046  17.725491030
C       -0.002036511   9.242412078  17.679258203
C       -0.003206549  10.662090989  17.625411579
C        1.228909252   8.532337943  17.730559032
C        1.226513397  11.375417678  17.620768588
C        2.456827765   9.246461591  17.730924991
C        2.456123390  10.665406181  17.671200732
C        3.684134982   8.533693998  17.755237518
C        3.684493019  11.375991937  17.653535651
C        4.912641060   9.243453970  17.695839245
C        4.912656657  10.663526314  17.652270109
C        6.144860156   8.534014396  17.695347946
C        6.142331809  11.372763324  17.607608038
C       -0.004216583  13.506592553  17.570381174
C       -0.003458861  14.927059736  17.581139711
C        1.227132240  12.794983685  17.587750778
C        1.226690769  15.636756283  17.578329843
C        2.456293251  13.505766248  17.593671806
C        2.457362163  14.925649354  17.574199426
C        3.685807775  12.795062362  17.619081269
C        3.685981771  15.636367533  17.578061175
C        4.914762299  13.505806955  17.603770131
C        4.915608798  14.926000801  17.583757285
C        6.143023955  12.793895431  17.592362145
C        6.145751819  15.637635313  17.583486978

K_POINTS automatic
4 2 1  0 0 0

CELL_PARAMETERS angstrom
7.378073983 0.000000000 0.0000000000
0.000000000 17.038932 0.0000000000
0.000000000 0.000000000 25.00
