&control
    calculation = 'relax'
    prefix = 'graphene'
    pseudo_dir = '/home/549/hxw549/Short/pseudopotentials'
    outdir = './'
    restart_mode = 'from_scratch'
    etot_conv_thr = 1.d-6
    forc_conv_thr = 1.d-5
/

&system
    ibrav = 0 
    nat = 4
    ntyp = 1
    ecutwfc = 80
    ecutrho = 180
    occupations = 'smearing'
    smearing = 'gaussian'
    degauss = 0.1
    vdw_corr='grimme-d2'
/

&electrons
    diagonalization = 'david'
    diago_thr_init = 1.d-4
    mixing_mode = 'plain'
    mixing_beta = 0.7
    conv_thr =  1.d-10
/	

&ions

/


ATOMIC_SPECIES
C   12.0107 C.pbe-mt_gipaw.UPF

ATOMIC_POSITIONS crystal
C       0       0.166666667     0.5
C       0       0.5     0.5
C       0.5     0       0.5
C       0.5     0.666666667     0.5

K_POINTS automatic
8 8 1 0 0 0


CELL_PARAMETERS angstrom
2.459512147 0.000000000 0.0000000000
0 4.26 0.0000000000
0.000000000 0.000000000 10.0000000000
