&control
    calculation = 'scf'
    prefix = 'gc'
    pseudo_dir = '/home/549/hxw549/Short/pseudopotentials/'
    outdir = './'
    restart_mode = 'from_scratch'
    etot_conv_thr = 1.d-6
    forc_conv_thr = 1.d-5
    
/

&system
    ibrav = 0
    nat = 150
    ntyp = 4
    ecutwfc = 80
    occupations = 'smearing'
    smearing = 'gaussian'
    degauss = 0.1
    vdw_corr='grimme-d2'
    tot_charge=1
/

&electrons
    diagonalization = 'david'
    diago_thr_init = 1.d-4
    mixing_mode = 'local-TF'
    mixing_beta = 0.7
    conv_thr =  1.d-8
    	

/	

&ions
    
/


ATOMIC_SPECIES
Cu 63.546 Cu.pbe-n-van_ak.UPF
C_h 12.0107 C.star1s-pbe-mt_gipaw.UPF
C   12.0107 C.pbe-mt_gipaw.UPF
H  1.007825032 H.pbe-van_ak.UPF


ATOMIC_POSITIONS angstrom
Cu       0.000678157   0.001708687   7.368820927
Cu       1.844966761   1.706859800   7.368157889
Cu       3.689449180   0.001895514   7.368469056
Cu       5.534255338   1.707361391   7.369288540
Cu       0.000540567   3.409940223   7.367331357
Cu       1.845228155   5.112280201   7.364516072
Cu       3.689766191   3.409937580   7.367357216
Cu       5.534241583   5.112136825   7.364858317
Cu       0.000606121   6.814523945   7.362887279
Cu       1.845415033   8.516547234   7.364112986
Cu       3.689835610   6.814493929   7.363199848
Cu       5.534037422   8.516413982   7.364755947
Cu       0.000679370  10.217776027   7.367304543
Cu       1.845170510  11.919091289   7.370121459
Cu       3.689667550  10.217579801   7.368589773
Cu       5.534152576  11.919447512   7.370207192
Cu       0.000778856  13.623765385   7.369687826
Cu       1.845128033  15.332410487   7.369292147
Cu       3.689437513  13.623781303   7.369472882
Cu       5.534064690  15.331822099   7.367466625
Cu       0.001149150   1.708947011   9.202180840
Cu       1.845081695   0.003113940   9.199446002
Cu       3.689476162   1.708784943   9.201520823
Cu       5.534448602   0.000530267   9.196693865
Cu       0.001317518   5.114931213   9.199455247
Cu       1.845361877   3.412643905   9.200963087
Cu       3.690029687   5.114597629   9.199404035
Cu       5.534631451   3.413121629   9.202218922
Cu       0.001491653   8.513216918   9.200429273
Cu       1.845633219   6.814621288   9.198593167
Cu       3.689767996   8.512433259   9.201921881
Cu       5.534722149   6.814311515   9.198956239
Cu       0.001191141  11.916196600   9.204036681
Cu       1.845497977  10.212324316   9.204915059
Cu       3.689588924  11.917238133   9.204083721
Cu       5.534527296  10.213399586   9.203827419
Cu       0.001309933  15.331993308   9.196278485
Cu       1.845122759  13.623092483   9.200100002
Cu       3.689228868  15.332059003   9.195589883
Cu       5.534551780  13.624405766   9.199090033
Cu       0.002173576  -0.001254690  11.034984147
Cu       1.845892904   1.712733756  11.044328682
Cu       3.688956626  -0.001628930  11.033545581
Cu       5.534844781   1.706180228  11.036742025
Cu       0.003214131   3.417678422  11.045234188
Cu       1.846962163   5.117551890  11.045950176
Cu       3.689675282   3.417287264  11.044681212
Cu       5.536527337   5.117949186  11.045329440
Cu       0.003717829   6.813568945  11.048556069
Cu       1.846342662   8.504108385  11.053879353
Cu       3.690743378   6.810713277  11.049022532
Cu       5.536754861   8.507499306  11.048177173
Cu       0.003031278  10.206226567  11.050024498
Cu       1.845181288  11.914525430  11.044636783
Cu       3.689751660  10.207386060  11.047980400
Cu       5.535669774  11.916582029  11.041444704
Cu       0.001414410  13.624961128  11.037076402
Cu       1.845223835  15.331768679  11.033809414
Cu       3.689897776  13.626790170  11.036555219
Cu       5.534904749  15.332324207  11.033808037
Cu       0.005736244   1.703972106  12.867544905
Cu       1.846850414  -0.006160981  12.871799608
Cu       3.688641254   1.700496058  12.868623988
Cu       5.534562380  -0.003901733  12.870276503
Cu       0.010051038   5.120330838  12.897000554
Cu       1.852465284   3.429698797  12.895850269
Cu       3.693232925   5.119656784  12.902411663
Cu       5.535044067   3.411626289  12.872430618
Cu       0.009668847   8.498287716  12.909128149
Cu       1.853711628   6.798811486  12.916279460
Cu       3.692260113   8.498022763  12.898022185
Cu       5.540345822   6.810550321  12.899845418
Cu       0.003641533  11.918899714  12.878256320
Cu       1.845607558  10.201901120  12.892142466
Cu       3.690457208  11.920250332  12.870011419
Cu       5.540656838  10.206801146  12.881803526
Cu       0.000760455  15.331056459  12.874361995
Cu       1.844574384  13.629728143  12.872477748
Cu       3.691116171  15.333045152  12.874373625
Cu       5.536866334  13.628598746  12.872058434
Cu       0.003128307  -0.001122588  14.682932265
Cu       1.848474684   1.700472433  14.676203262
Cu       3.691376036  -0.003542940  14.694198120
Cu       5.539677094   1.697307146  14.675142271
Cu       0.005263837   3.405483892  14.672400109
Cu       1.885376180   5.108352877  14.786527801
Cu       3.702761361   3.384238405  14.693019305
Cu       5.530928520   5.100137704  14.701778432
Cu       0.020271321   6.791412507  14.741000326
Cu       1.864224278   8.499722680  14.738321697
Cu       3.707843546   6.813809757  14.767731487
Cu       5.539608321   8.513951102  14.712141140
Cu       0.011058642  10.216446356  14.706355074
Cu       1.844302940  11.926361607  14.680891419
Cu       3.692683960  10.223826193  14.682436033
Cu       5.542273383  11.921596487  14.676800743
Cu       0.001329020  13.630555693  14.696037667
Cu       1.847350975  15.330923490  14.691655189
Cu       3.692717204  13.623498427  14.682157205
Cu       5.534792669  15.332715186  14.690652764
C       -0.002242988   0.717368031  17.594964110
C       -0.002777755   2.136099542  17.562343466
C        1.227371693   0.008317011  17.606410357
C        1.226641505   2.841955853  17.527053195
C        2.456438029   0.715494509  17.573254114
C        2.456407155   2.134403264  17.526508416
C        3.687300112   0.007030088  17.587194400
C        3.686314048   2.846881617  17.511054709
C        4.918393215   0.718030049  17.580253513
C        4.919158409   2.137203018  17.537494183
C        6.146310945   0.008714190  17.611456974
C        6.148486709   2.847260900  17.545857345
C       -0.002715008   4.977381284  17.560003868
C       -0.002998512   6.403849332  17.504377921
C        1.231223805   4.263148234  17.543257464
C        1.206028877   7.122978891  17.618331732
C        2.455946130   4.960017906  17.606335401
C        2.397192690   6.366662121  18.115503391
H        2.138252221   6.217507611  19.189504986
C        3.679533879   4.267423244  17.564938933
C        3.734225669   7.130513187  18.135427844
H        3.989678380   7.227870128  19.216617104
C        4.918204659   4.984421977  17.563992085
C        4.923716538   6.389224234  17.605137133
C        6.150733134   4.269917291  17.536768165
C        6.133188763   7.106232397  17.514237807
C       -0.014546651   9.238451521  17.523043948
C       -0.009805654  10.660657367  17.507972325
C        1.216232814   8.525160207  17.588203282
C        1.222430794  11.371022860  17.543378626
C        2.457634755   9.242748720  17.628000214
C        2.452515585  10.662690913  17.572762396
C_h        3.677938541   8.555481300  17.688291977
C        3.679513879  11.373887146  17.580520331
C        4.898492729   9.245704190  17.573484870
C        4.906356933  10.666272167  17.542645371
C        6.135261330   8.531300010  17.547565319
C        6.138051569  11.372439136  17.524253275
C       -0.006132814  13.500877397  17.575959714
C       -0.004029624  14.919567336  17.616360954
C        1.224643615  12.789979188  17.576464507
C        1.225756704  15.628424281  17.619211092
C        2.453471473  13.500001665  17.614780235
C        2.455859279  14.918730889  17.622911112
C        3.681875930  12.792439582  17.604439473
C        3.685897198  15.627238022  17.624707464
C        4.912302329  13.499938803  17.609109207
C        4.914214597  14.918659640  17.623724560
C        6.140260207  12.791186796  17.567537351
C        6.145296031  15.628607137  17.621271326

K_POINTS automatic
4 2 1  0 0 0

CELL_PARAMETERS angstrom
7.378073983 0.000000000 0.0000000000
0.000000000 17.038932 0.0000000000
0.000000000 0.000000000 25.00
