&control
    calculation = 'relax'
    prefix = 'gc'
    pseudo_dir = '/home/549/hxw549/Short/pseudopotentials/'
    outdir = './'
    restart_mode = 'from_scratch'
    etot_conv_thr = 1.d-6
    forc_conv_thr = 1.d-5
/
&system
    ibrav = 0
    nat = 137
    ntyp = 5
    ecutwfc = 80
    occupations = 'smearing'
    smearing = 'gaussian'
    degauss = 0.1
    vdw_corr='grimme-d2'
/
&electrons
    diagonalization = 'david'
    diago_thr_init = 1.d-4
    mixing_mode = 'local-TF'
    mixing_beta = 0.7
    conv_thr =  1.d-8
/	
&ions
/
ATOMIC_SPECIES
Cu 63.546 Cu.pbe-n-van_ak.UPF
C_h 12.0107 C.star1s-pbe-mt_gipaw.UPF
C   12.0107 C.pbe-mt_gipaw.UPF
O   15.9994 O.pbe-van_gipaw.UPF
H  1.007825032 H.pbe-van_ak.UPF
ATOMIC_POSITIONS angstrom
Cu      -0.001454429   0.002504305   7.394835851
Cu       1.844231035   1.704432235   7.400465836
Cu       3.690443209   0.002350657   7.394915817
Cu       5.533580229   1.708201001   7.403761241
Cu       0.000006582   3.407405889   7.412336361
Cu       1.843902568   5.109815089   7.416712303
Cu       3.688463224   3.408959773   7.412257017
Cu       5.533301955   5.108994383   7.415421107
Cu      -0.000505059   6.816061337   7.409668427
Cu       1.844703479   8.524183739   7.401649335
Cu       3.688525436   6.814415411   7.409696871
Cu       5.532472184   8.524752302   7.400748151
Cu      -0.000507464  10.231944118   7.397657897
Cu       1.843958011  11.937114379   7.397444835
Cu       3.688836235  10.233663438   7.398601380
Cu       5.533839500  11.937548142   7.397296851
Cu       0.000433059  13.638373160   7.395618220
Cu       1.844771099  15.340238116   7.392435184
Cu       3.688621848  13.637424849   7.394329357
Cu       5.533352772  15.336617925   7.394300698
Cu      -0.000880352   1.697189384   9.236142733
Cu       1.844323529   0.000047269   9.228313080
Cu       3.689037577   1.697410660   9.233844453
Cu       5.533405866  -0.001458943   9.227896184
Cu      -0.001805708   5.111563863   9.243115855
Cu       1.843870725   3.398263041   9.241685189
Cu       3.688475976   5.110024957   9.244988131
Cu       5.532552938   3.402830191   9.247154865
Cu      -0.001443748   8.530050333   9.228511458
Cu       1.843168622   6.824308005   9.236094250
Cu       3.687818295   8.529834114   9.228885379
Cu       5.532111307   6.822491372   9.233265319
Cu      -0.000688321  11.937603670   9.229609433
Cu       1.844188344  10.233762831   9.225563921
Cu       3.688336646  11.938991769   9.232495634
Cu       5.531982663  10.234065488   9.227391105
Cu      -0.000210127  15.340163153   9.228112290
Cu       1.843898686  13.640923055   9.230749885
Cu       3.689128317  15.340974915   9.225876011
Cu       5.533742283  13.640333836   9.232656713
Cu       0.000600643  -0.004299951  11.078831487
Cu       1.844007524   1.687817126  11.083897956
Cu       3.687477458  -0.002986358  11.078305281
Cu       5.531812878   1.684912528  11.081798568
Cu      -0.003616202   3.394907147  11.075767057
Cu       1.842787349   5.113680455  11.063937998
Cu       3.688844966   3.387427087  11.079217282
Cu       5.529662250   5.121537508  11.074284904
Cu      -0.004201067   6.830914045  11.069459575
Cu       1.839831338   8.534944360  11.070090690
Cu       3.686307913   6.826896843  11.066615456
Cu       5.532283489   8.532002269  11.067010628
Cu      -0.000497229  10.233189542  11.070459459
Cu       1.841592836  11.936340323  11.066938505
Cu       3.686477691  10.231789580  11.071455561
Cu       5.533393339  11.935686921  11.068320853
Cu      -0.001953675  13.645156152  11.072878851
Cu       1.844692828  15.346897091  11.076101018
Cu       3.688743264  13.658246772  11.070495682
Cu       5.532584880  15.348507760  11.078585206
Cu      -0.001208658   1.686274774  12.922287607
Cu       1.846495835  -0.013040439  12.945322569
Cu       3.686017465   1.668200713  12.946687542
Cu       5.529803620  -0.007705288  12.944089834
Cu      -0.009482109   5.116841140  12.883830509
Cu       1.846564543   3.410737592  12.890457574
Cu       3.688141391   5.113831824  12.889125677
Cu       5.524693184   3.403811594  12.891257858
Cu      -0.001472541   8.529529348  12.922483341
Cu       1.839075165   6.828961079  12.904400126
Cu       3.684298250   8.524258598  12.905765557
Cu       5.527858307   6.841072926  12.921938114
Cu       0.001378213  11.948431261  12.909006339
Cu       1.836578951  10.241304615  12.913659059
Cu       3.688470005  11.957681527  12.881786235
Cu       5.542417546  10.232936510  12.908476108
Cu      -0.001955836  15.341872224  12.926659205
Cu       1.842412914  13.639265414  12.903276821
Cu       3.688176822  15.359586348  12.948810087
Cu       5.532114985  13.644495004  12.903065209
Cu       0.002052409  -0.005549087  14.777031987
Cu       1.837875979   1.735256554  14.697668954
Cu       3.682519091  -0.016758682  14.889341339
Cu       5.533380364   1.735697218  14.702335984
Cu      -0.000360391   3.428247862  14.696358605
Cu       1.836962473   5.118477523  14.698828646
Cu       3.679585130   3.422774771  14.715933162
Cu       5.527390765   5.102252490  14.707395288
Cu      -0.012046342   6.804117166  14.698259371
Cu       1.849171541   8.528039769  14.727449598
Cu       3.689549957   6.801771528  14.707402896
Cu       5.521918776   8.556485377  14.779919697
Cu       0.009205614  10.247346384  14.729831546
Cu       1.843097980  11.952298277  14.757788041
Cu       3.694624648  10.264550176  14.657583200
Cu       5.544612949  11.944539235  14.741454016
Cu      -0.003294770  13.632849499  14.765155605
Cu       1.837579962  15.298137422  14.749494210
Cu       3.694775934  13.624654491  14.752113732
Cu       5.536629139  15.313871451  14.749170352
C        0.018339056   0.660363526  17.476939068
C        0.020605260   2.094926637  17.562317953
C        1.247840146  -0.024295995  17.407559048
C        1.248527950   2.805492226  17.594623978
C        2.470851576   0.665565823  17.373329725
C        2.477397902   2.097585287  17.486184072
C        3.705599371  -0.025291249  17.194165758
C        3.712227754   2.806096022  17.515829020
C        4.942887833   0.662744642  17.368601932
C        4.945889221   2.095612409  17.474744420
C        6.165641255  -0.023401571  17.404444682
C        6.173452360   2.808693474  17.581255986
C        0.023886445   4.956565247  17.675411272
C        0.023960550   6.389381884  17.624655515
C        1.247667330   4.234633142  17.648891495
C        1.255247646   7.097475278  17.553516438
C        2.479855615   4.946845086  17.608340956
C        2.478002596   6.376825527  17.558838124
C        3.712219772   4.232148811  17.596444988
C        3.707393118   7.094240121  17.488948854
C        4.940653540   4.952634238  17.624922844
C        4.938140673   6.383877632  17.580551936
C        6.173180826   4.240313916  17.650184031
C        6.168429708   7.097259269  17.571446354
C        0.025423639   9.223262011  17.412002575
C        1.252829808   8.534144603  17.469498011
C        2.489687056   9.219402754  17.455221641
C        3.722919876   8.529245095  17.414148903
C        4.948811042   9.223134884  17.311376967
C        6.174715815   8.531500595  17.435192362
H        1.241117777  -1.113224953  17.373519846
H        3.700430568  -1.111448221  17.293191783
H        6.160747733  -1.112429380  17.376760219
H        0.006128487  10.311296038  17.322128374
O        2.557569188  10.586995253  17.476184486
H        1.748119004  10.993931862  17.868396899
H        4.952156474  10.311451901  17.255293808
K_POINTS automatic
4 2 1  0 0 0
CELL_PARAMETERS angstrom
7.378073983 0.000000000 0.0000000000
0.000000000 17.038932 0.0000000000
0.000000000 0.000000000 25.00
