&control
    calculation = 'relax'
    prefix = 'gc'
    pseudo_dir = '/home/549/hxw549/Short/pseudopotentials/'
    outdir = './'
    restart_mode = 'from_scratch'
    etot_conv_thr = 1.d-6
    forc_conv_thr = 1.d-5
    
/

&system
    ibrav = 0
    nat = 151
    ntyp = 3
    ecutwfc = 80
    occupations = 'smearing'
    smearing = 'gaussian'
    degauss = 0.1
    vdw_corr='grimme-d2'
/

&electrons
    diagonalization = 'david'
    diago_thr_init = 1.d-4
    mixing_mode = 'local-TF'
    mixing_beta = 0.7
    conv_thr =  1.d-8
    	

/	

&ions
    
/


ATOMIC_SPECIES
Cu 63.546 Cu.pbe-n-van_ak.UPF
C   12.0107 C.pbe-mt_gipaw.UPF
H  1.007825032 H.pbe-van_ak.UPF


ATOMIC_POSITIONS angstrom
Cu      -0.000045354   0.000633537   7.359225014
Cu       1.844395690   1.703917984   7.359523395
Cu       3.688903952   0.000215148   7.358832694
Cu       5.533513459   1.704045765   7.359770737
Cu      -0.000109443   3.407289871   7.359771803
Cu       1.844411014   5.111330375   7.358681581
Cu       3.689018443   3.407660774   7.359684444
Cu       5.533569244   5.111306026   7.358742709
Cu      -0.000078220   6.815707323   7.357817178
Cu       1.844635367   8.519825619   7.358395121
Cu       3.689001860   6.815403051   7.358020162
Cu       5.533306815   8.519784311   7.358574398
Cu      -0.000076591  10.223588361   7.359413741
Cu       1.844410259  11.927072658   7.359984398
Cu       3.688963505  10.223649401   7.360091837
Cu       5.533493605  11.927120273   7.360030580
Cu      -0.000053668  13.630595950   7.359556137
Cu       1.844334167  15.335121371   7.358939332
Cu       3.688912972  13.630852726   7.359077505
Cu       5.533560015  15.335023540   7.358488065
Cu       0.000080534   1.704586171   9.194481143
Cu       1.844231469   0.001058145   9.193177616
Cu       3.688782658   1.704250728   9.192926213
Cu       5.533623727   0.000121176   9.192101346
Cu       0.000082926   5.112719992   9.191610189
Cu       1.844316908   3.408238414   9.192544884
Cu       3.689146293   5.112372784   9.191984190
Cu       5.533735645   3.408501953   9.193142063
Cu       0.000188797   8.518307629   9.191827689
Cu       1.844558228   6.815646773   9.191203788
Cu       3.688906515   8.517959508   9.192410821
Cu       5.533661525   6.815494738   9.191466803
Cu       0.000032085  11.926041919   9.193775607
Cu       1.844371107  10.221757658   9.193359399
Cu       3.688815749  11.927160509   9.193309563
Cu       5.533605707  10.222153116   9.193017982
Cu       0.000045672  15.335367574   9.191415936
Cu       1.844244247  13.630836040   9.192716173
Cu       3.688769708  15.335210105   9.191097206
Cu       5.533611506  13.631320760   9.192234888
Cu       0.000310506  -0.000726364  11.035006144
Cu       1.844240016   1.708306862  11.038370447
Cu       3.688470961  -0.000173141  11.033191456
Cu       5.533730484   1.705005775  11.034602548
Cu       0.001013887   3.412752885  11.036633402
Cu       1.844955058   5.114006381  11.035305129
Cu       3.688575946   3.410681457  11.035106663
Cu       5.534751717   5.114174568  11.035496814
Cu       0.001348434   6.815014278  11.037411944
Cu       1.844242594   8.513925082  11.038220157
Cu       3.689318237   6.813897499  11.036935940
Cu       5.535039203   8.515699975  11.035702676
Cu       0.000703466  10.217906261  11.036871955
Cu       1.843768573  11.924589093  11.035562026
Cu       3.688607163  10.219487249  11.034017291
Cu       5.534100389  11.925819111  11.033948403
Cu       0.000033049  13.631629460  11.033607648
Cu       1.844278883  15.335400954  11.034027188
Cu       3.688721545  13.632671426  11.033643826
Cu       5.533515214  15.335531788  11.034059461
Cu       0.001863774   1.707153803  12.869676673
Cu       1.845061912  -0.001109004  12.875132157
Cu       3.687907551   1.703411516  12.871691142
Cu       5.532873790  -0.000357582  12.874707846
Cu       0.005814106   5.115818988  12.884279641
Cu       1.848274732   3.421534719  12.885771696
Cu       3.689843215   5.114585754  12.881953051
Cu       5.532899630   3.411850968  12.873066968
Cu       0.004446109   8.510907782  12.887908888
Cu       1.847972429   6.808199439  12.891204858
Cu       3.690088841   8.513556130  12.876257498
Cu       5.537901786   6.814175346  12.882419684
Cu       0.000693166  11.925963913  12.872448096
Cu       1.842780681  10.214378604  12.878443644
Cu       3.688477820  11.925728483  12.866613071
Cu       5.537170789  10.217408192  12.873217245
Cu      -0.000349040  15.333557261  12.877767318
Cu       1.843124301  13.632140936  12.873386779
Cu       3.689074564  15.336649885  12.877017013
Cu       5.534632169  13.631725062  12.873215522
Cu       0.000719896   0.005698014  14.687028351
Cu       1.845986293   1.706743705  14.685083167
Cu       3.688986746   0.000504526  14.698956792
Cu       5.535347234   1.703637636  14.685601489
Cu       0.000974489   3.410398503  14.681319071
Cu       1.873278649   5.112906155  14.746020354
Cu       3.696776956   3.395917298  14.693856524
Cu       5.525242125   5.110223760  14.696032162
Cu       0.013389044   6.801374799  14.709907192
Cu       1.853181800   8.513382085  14.714535343
Cu       3.697658588   6.822700614  14.710266358
Cu       5.538796543   8.518707230  14.700263767
Cu       0.003812129  10.224167009  14.695841422
Cu       1.843025394  11.925940591  14.684018135
Cu       3.690607080  10.225582030  14.679066245
Cu       5.536474849  11.924721965  14.682445164
Cu      -0.000377918  13.627182606  14.698717712
Cu       1.842829015  15.333588425  14.693514410
Cu       3.689398039  13.625797116  14.684467078
Cu       5.535161904  15.334240723  14.693517021
C       -0.002519224   0.707748958  17.627425240
C       -0.003918684   2.125159637  17.613871880
C        1.228375242   0.000110652  17.619423153
C        1.223985518   2.830333152  17.578905870
C        2.456768174   0.707790309  17.595372601
C        2.456093132   2.126621928  17.572738691
C        3.687878149  -0.001025636  17.595842734
C        3.688020814   2.837072105  17.557482303
C        4.918767911   0.709274473  17.605194328
C        4.919224165   2.127721526  17.580562614
C        6.146717705  -0.000435095  17.625808217
C        6.147909505   2.836813136  17.590067476
C       -0.005948282   4.966190636  17.567090744
C       -0.003206696   6.391023850  17.522189191
C        1.224276291   4.249718165  17.561977530
C        1.202047748   7.111739538  17.586654730
C        2.449875239   4.941392314  17.573707858
C        2.432036214   6.375090226  17.547415650
C        3.683609610   4.255728488  17.570972165
C        3.709295522   7.113087074  17.566992930
C        3.061016755   6.717870775  16.577162187
H        3.961016755   6.297870775  16.577162187
H        2.161016755   6.297870775  16.577162187
C        4.920196142   4.971981172  17.570313651
C        4.939422075   6.382633589  17.590363988
C        6.149417159   4.258121829  17.568473096
C        6.142999210   7.101359838  17.530415361
C       -0.003990147   9.234054814  17.547852211
C       -0.001494039  10.655161689  17.553828460
C        1.224473315   8.520761168  17.579827255
C        1.229562585  11.364353432  17.581944643
C        2.462690564   9.236903935  17.618128053
C        2.458754444  10.655644633  17.602829779
C        3.693271054   8.553409095  17.641739711
C        3.687766238  11.365435756  17.613081993
C        4.915569090   9.242096344  17.579502645
C        4.917821200  10.661592253  17.585668730
C        6.148171795   8.525762575  17.548698564
C        6.147330564  11.367174543  17.578459849
C       -0.000219479  13.493513936  17.597482215
C       -0.000452635  14.912025620  17.616165793
C        1.230462998  12.782729204  17.602318511
C        1.228510665  15.620268194  17.616178911
C        2.459006098  13.492065645  17.620843779
C        2.459333003  14.910795872  17.617040008
C        3.688035070  12.783987188  17.619976279
C        3.687992717  15.619154450  17.618088254
C        4.917250135  13.492109924  17.620483032
C        4.917172795  14.910804277  17.618784132
C        6.147016502  12.784910435  17.602895231
C        6.147455472  15.620061021  17.617771109



K_POINTS automatic
4 2 1  0 0 0

CELL_PARAMETERS angstrom
7.378073983 0.000000000 0.0000000000
0.000000000 17.038932 0.0000000000
0.000000000 0.000000000 25.00
