&control
    calculation = 'relax'
    prefix = 'gc'
    pseudo_dir = '/home/549/hxw549/Short/pseudopotentials/'
    outdir = './'
    restart_mode = 'from_scratch'
    etot_conv_thr = 1.d-6
    forc_conv_thr = 1.d-5
/
&system
    ibrav = 0
    nat = 153
    ntyp = 3
    ecutwfc = 80
    occupations = 'smearing'
    smearing = 'gaussian'
    degauss = 0.1
    vdw_corr='grimme-d2'
/
&electrons
    diagonalization = 'david'
    diago_thr_init = 1.d-4
    mixing_mode = 'local-TF'
    mixing_beta = 0.7
    conv_thr =  1.d-8
/	
&ions
/
ATOMIC_SPECIES
Cu 63.546 Cu.pbe-n-van_ak.UPF
C   12.0107 C.pbe-mt_gipaw.UPF
H  1.007825032 H.pbe-van_ak.UPF
ATOMIC_POSITIONS angstrom
Cu       0.005825600  -0.020879828   7.309069376
Cu       1.851551875   1.662320170   7.321608923
Cu       3.698158252  -0.024752648   7.304355143
Cu       5.542192858   1.662110926   7.323481967
Cu       0.007843898   3.363051371   7.344362965
Cu       1.849461623   5.084764814   7.367224864
Cu       3.694441466   3.362823346   7.348424709
Cu       5.538896325   5.084482584   7.369030019
Cu       0.003718235   6.817741028   7.374290543
Cu       1.849423911   8.549412063   7.361901447
Cu       3.696408748   6.817149015   7.373943210
Cu       5.538602831   8.549594042   7.362677034
Cu       0.007207986  10.271503505   7.335075280
Cu       1.851665057  11.975637777   7.312890747
Cu       3.694848757  10.272270356   7.339380318
Cu       5.541881037  11.976452842   7.313278120
Cu       0.006658657  13.660599776   7.303560838
Cu       1.851665121  15.340961338   7.299017530
Cu       3.697148696  13.664734218   7.297105078
Cu       5.540355353  15.338658113   7.302010089
Cu       0.006241515   1.638958457   9.182279182
Cu       1.853434181  -0.039469896   9.173582053
Cu       3.694947885   1.630780946   9.170770806
Cu       5.541300963  -0.038196129   9.176359945
Cu       0.003794192   5.066788903   9.166861349
Cu       1.847451170   3.336263309   9.174512329
Cu       3.692439955   5.068566168   9.175372371
Cu       5.537413198   3.335920718   9.171984852
Cu       0.003014422   8.572798497   9.161534690
Cu       1.850116342   6.819708731   9.168009736
Cu       3.692372725   8.570079250   9.170154879
Cu       5.535149852   6.818960322   9.173484130
Cu       0.006089837  11.998478219   9.172480502
Cu       1.846626947  10.302041892   9.164334374
Cu       3.695341323  12.007694056   9.158862680
Cu       5.538051623  10.302764842   9.162267022
Cu       0.009616428  15.337349522   9.172555702
Cu       1.853132377  13.676747423   9.166084342
Cu       3.697447674  15.336334498   9.175583305
Cu       5.541837946  13.673202031   9.171275101
Cu       0.008503498  -0.045796564  11.066731980
Cu       1.846207567   1.624884109  11.032857031
Cu       3.697275649  -0.044521326  11.062027319
Cu       5.541317987   1.631387982  11.036312201
Cu       0.003192772   3.338168760  11.003457062
Cu       1.845963976   5.065547463  10.967553406
Cu       3.693553330   3.318722146  10.988735706
Cu       5.544967795   5.064250194  10.967950685
Cu       0.004910614   6.822316591  10.955240247
Cu       1.842452934   8.577946691  10.961320394
Cu       3.687382301   6.820832214  10.960060749
Cu       5.546163954   8.579741667  10.960020411
Cu       0.001974380  10.303684587  10.997224512
Cu       1.845853977  12.014162848  11.024490365
Cu       3.692834681  10.327967043  10.976300124
Cu       5.541865087  12.005154386  11.032927009
Cu       0.007438553  13.679462687  11.063165024
Cu       1.857835276  15.334262516  11.077640458
Cu       3.698683305  13.676157819  11.061820072
Cu       5.541143369  15.335985275  11.071553486
Cu       0.000903021   1.659224790  12.906060002
Cu       1.850648922  -0.015568478  12.954663418
Cu       3.702033363   1.656163681  12.893500856
Cu       5.542876392  -0.028914207  12.952928040
Cu      -0.002452971   5.077516762  12.772984563
Cu       1.843618988   3.335494181  12.813368022
Cu       3.700028359   5.033666285  12.724815451
Cu       5.549036218   3.346305241  12.836046341
Cu      -0.003660554   8.571275496  12.773435837
Cu       1.815761177   6.826222072  12.733071259
Cu       3.698160335   8.632724015  12.698297503
Cu       5.579607124   6.828877700  12.706217492
Cu      -0.002217163  11.978962059  12.906140984
Cu       1.838262885  10.308659715  12.806148259
Cu       3.701929501  11.972398305  12.897961001
Cu       5.550648682  10.292067382  12.838970009
Cu       0.014343887  15.333736101  12.972967376
Cu       1.851676531  13.645780126  12.954768772
Cu       3.691479652  15.336451436  12.974145559
Cu       5.540175771  13.662538000  12.954418696
Cu       0.020834128   0.018401931  14.810696017
Cu       1.864708259   1.733204356  14.763576139
Cu       3.684513330   0.007296887  14.819847266
Cu       5.532299314   1.706158505  14.762623282
Cu      -0.010229599   3.397594322  14.708291842
Cu       1.807400225   5.074686029  14.493921269
Cu       3.707342365   3.412356413  14.657686770
Cu       5.576518568   5.099120053  14.562158450
Cu      -0.022580652   6.830029550  14.568266750
Cu       1.811302918   8.581027287  14.501402859
Cu       3.761764442   6.860112305  14.348661926
Cu       5.577498030   8.552387926  14.590952104
Cu      -0.007724628  10.242302205  14.711516713
Cu       1.864547248  11.901926203  14.765833336
Cu       3.701964371  10.212304481  14.673651713
Cu       5.527274567  11.927256276  14.768236268
Cu       0.017719130  13.614044561  14.816547537
Cu       1.848083081  15.334715799  14.844016740
Cu       3.683876952  13.627854143  14.818703755
Cu       5.541597525  15.337376701  14.841010921
C       -0.003101320   0.736131708  18.329805746
C       -0.003139338   2.155328430  18.503730494
C        1.225338245   0.018886509  18.264802748
C        1.228005773   2.857276191  18.659976573
C        2.455555546   0.732898775  18.339524913
C        2.455848749   2.147427722  18.555100167
C        3.684803065   0.018175347  18.254939611
C        3.684109673   2.856347062  18.683084668
C        4.913910037   0.735368134  18.322184351
C        4.912253856   2.152471603  18.520090727
C        6.144552494   0.020466940  18.264923349
C        6.143261136   2.860378248  18.613286384
C       -0.002102633   4.973084722  18.955598869
C       -0.000288568   6.392860850  19.073186576
C        1.229049714   4.260456697  18.934987533
C        1.228228124   7.106495010  19.178212620
C        2.454268013   4.961598721  19.145422893
C        2.451999135   6.387393742  19.317085614
C        3.684642122   4.257556577  18.981995273
C        3.692019880   7.113564901  19.306123913
C        4.916923403   4.970993773  19.032203051
C        4.920405188   6.392675363  19.186185773
C        6.143725242   4.270027822  18.842525537
C        6.147088779   7.107188988  19.073558847
C        0.001695585   9.228199444  18.830420199
C        0.000944451  10.638574615  18.601034827
C        1.229141335   8.527987456  19.014925354
C        1.231698909  11.346975161  18.509181611
C        2.460020774   9.240988505  18.956082309
C        2.460079580  10.642279204  18.664398803
C        3.689935333   8.536309878  19.116800092
C        3.687812268  11.350998378  18.539333112
C        4.916033054   9.237685873  18.913107951
C        4.915672091  10.640443403  18.641413446
C        6.147596436   8.526422839  18.947328286
C        6.146999559  11.343544971  18.494268597
C       -0.000481082  13.479279678  18.263108757
C       -0.002141757  14.908911484  18.196003353
C        1.231017832  12.764444991  18.317241104
C        1.226835725  15.628720460  18.186203127
C        2.459430174  13.480973235  18.249525887
C        2.457156635  14.910068680  18.182012033
C        3.688055264  12.766337982  18.330478756
C        3.687143720  15.628614196  18.186543165
C        4.918700578  13.480618313  18.262802432
C        4.917428307  14.909655479  18.187831893
C        6.146593795  12.763637227  18.329940303
C        6.146250817  15.629434025  18.195343244
H        3.238528634   6.682027796  17.492340651
C        2.921069769   6.588371303  16.463983740
H        3.952687849   6.540896227  15.998245294
H        2.341563594   5.648614164  16.399730119
H        2.318621189   7.490398036  16.277491338
K_POINTS automatic
4 2 1  0 0 0
CELL_PARAMETERS angstrom
7.378073983 0.000000000 0.0000000000
0.000000000 17.038932 0.0000000000
0.000000000 0.000000000 25.00
