&control
    calculation = 'scf'
    prefix = 'gc'
    pseudo_dir = '/home/549/hxw549/Short/pseudopotentials/'
    outdir = './'
    restart_mode = 'from_scratch'
    etot_conv_thr = 1.d-6
    forc_conv_thr = 1.d-5
/
&system
    ibrav = 0
    nat = 139
    ntyp = 5
    ecutwfc = 80
    occupations = 'smearing'
    smearing = 'gaussian'
    degauss = 0.1
    vdw_corr='grimme-d2'
    tot_charge = 1
/
&electrons
    diagonalization = 'david'
    diago_thr_init = 1.d-4
    mixing_mode = 'local-TF'
    mixing_beta = 0.7
    conv_thr =  1.d-8
/	
&ions
/
ATOMIC_SPECIES
Cu 63.546 Cu.pbe-n-van_ak.UPF
C_h 12.0107 C.star1s-pbe-mt_gipaw.UPF
C   12.0107 C.pbe-mt_gipaw.UPF
O   15.9994 O.pbe-van_gipaw.UPF
H  1.007825032 H.pbe-van_ak.UPF
ATOMIC_POSITIONS angstrom
Cu      -0.007850042  -0.017639471   7.412115077
Cu       1.838846299   1.687689048   7.410194151
Cu       3.686980469  -0.015166891   7.410668720
Cu       5.529466239   1.695009917   7.410780960
Cu      -0.002314639   3.402656594   7.414355132
Cu       1.839686819   5.115468443   7.416367456
Cu       3.681548580   3.400812657   7.412756257
Cu       5.528409338   5.110283260   7.414229191
Cu      -0.007026796   6.827380668   7.413200212
Cu       1.839614773   8.538318490   7.411839709
Cu       3.685778630   6.827061947   7.414259153
Cu       5.527990173   8.541940678   7.414448777
Cu      -0.005612483  10.244103525   7.416425400
Cu       1.839245750  11.938938590   7.421791478
Cu       3.683956824  10.245421588   7.418086740
Cu       5.528188163  11.940751947   7.420288648
Cu      -0.003816949  13.630556651   7.419882586
Cu       1.839893708  15.325691881   7.414751606
Cu       3.682401868  13.629085688   7.421224996
Cu       5.528035474  15.318961252   7.418246901
Cu      -0.007103508   1.689097055   9.236618201
Cu       1.836926215  -0.016489248   9.247027496
Cu       3.681634313   1.689075587   9.237244947
Cu       5.526523122  -0.012464764   9.242238153
Cu      -0.007282416   5.113927302   9.237579510
Cu       1.837635427   3.396091802   9.238137755
Cu       3.681827592   5.111013250   9.237430718
Cu       5.525916871   3.399506642   9.240850546
Cu      -0.007672001   8.537944929   9.241713374
Cu       1.837160999   6.831874900   9.237004318
Cu       3.682327964   8.538265598   9.243180274
Cu       5.526550936   6.827124312   9.233580181
Cu      -0.007967825  11.938012879   9.261262461
Cu       1.837425716  10.236380264   9.250076685
Cu       3.682000240  11.938496384   9.266032743
Cu       5.525951002  10.240730520   9.253793449
Cu      -0.007342572  15.326282986   9.258296671
Cu       1.837140170  13.636613659   9.262492361
Cu       3.681548775  15.328542370   9.255381826
Cu       5.525671383  13.631958478   9.269242548
Cu      -0.008878013  -0.006641722  11.088024953
Cu       1.835720670   1.682799233  11.081179681
Cu       3.676759746  -0.008971646  11.089707085
Cu       5.520910994   1.684011477  11.080205222
Cu      -0.011386733   3.390972622  11.065345214
Cu       1.834550109   5.115562684  11.056177303
Cu       3.678811530   3.389220022  11.071567586
Cu       5.522058789   5.120125051  11.066538900
Cu      -0.011365267   6.830245859  11.070108624
Cu       1.833045331   8.537203336  11.089589874
Cu       3.679355622   6.827356259  11.067207884
Cu       5.523890952   8.529776520  11.079686188
Cu      -0.008538015  10.233627246  11.097208053
Cu       1.833353062  11.931282662  11.097456551
Cu       3.677260303  10.231021926  11.100491737
Cu       5.522530781  11.928926036  11.110744418
Cu      -0.008052431  13.632211231  11.114830737
Cu       1.833247568  15.330900315  11.116770661
Cu       3.674198762  13.643172520  11.114577995
Cu       5.522881699  15.341044266  11.101927774
Cu      -0.014182039   1.689148246  12.922452897
Cu       1.834897289  -0.002772566  12.958695417
Cu       3.674650354   1.672304964  12.944331590
Cu       5.516275684  -0.003937182  12.950395920
Cu      -0.018429292   5.105204471  12.874373818
Cu       1.836767315   3.408942385  12.876206828
Cu       3.679003692   5.112419743  12.883695314
Cu       5.512582018   3.403267289  12.884250122
Cu      -0.016593193   8.522470200  12.928354632
Cu       1.829272948   6.811566756  12.898945567
Cu       3.674228867   8.512601611  12.919489512
Cu       5.519922307   6.835076507  12.924868876
Cu      -0.009914640  11.923295291  12.962702821
Cu       1.825253203  10.246201372  12.958464378
Cu       3.664832987  11.937690585  12.941646017
Cu       5.526136350  10.213509394  12.938891761
Cu      -0.010584855  15.349077941  12.943575209
Cu       1.828059278  13.604947372  12.966618888
Cu       3.669832413  15.358312526  12.964939791
Cu       5.517144653  13.638116917  12.926602577
Cu      -0.005095049   0.012280394  14.791879290
Cu       1.826941277   1.757485972  14.698656126
Cu       3.658199264  -0.006278854  14.889306536
Cu       5.516428849   1.735226192  14.704722334
Cu      -0.024490227   3.425304769  14.694379323
Cu       1.831003835   5.090797122  14.697333250
Cu       3.679392464   3.422773592  14.710885037
Cu       5.512405614   5.103441480  14.700765690
Cu      -0.011891923   6.773108380  14.689992081
Cu       1.825009207   8.498350788  14.721279485
Cu       3.663450653   6.785705154  14.709323816
Cu       5.500989590   8.510311841  14.814668790
Cu      -0.035136363  10.196547600  14.760609565
Cu       1.812239970  11.949066452  14.890699515
Cu       3.687285358  10.220387334  14.690265057
Cu       5.509813435  11.933643890  14.758293556
Cu      -0.051399759  13.648082584  14.764643093
Cu       1.817091419  15.302159169  14.758393355
Cu       3.694251861  13.640070540  14.773386226
Cu       5.521223811  15.332415110  14.756445807
C        0.021436359   0.643845830  17.473382788
C        0.021868491   2.082759607  17.564899510
C        1.250625791  -0.046638501  17.396816047
C        1.251104172   2.793768255  17.586788691
C        2.474351126   0.645430881  17.376108819
C        2.477532874   2.080769792  17.491485650
C        3.710680777  -0.042053414  17.186669870
C        3.709240687   2.796408272  17.518162141
C        4.946378145   0.648198953  17.373575589
C        4.943248756   2.083843090  17.488422383
C        6.169488585  -0.045198312  17.394081607
C        6.172504626   2.795670641  17.585312165
C        0.029448752   4.937877220  17.634805173
C        0.035330483   6.365937351  17.559724674
C        1.254658309   4.224025438  17.629656561
C        1.260342375   7.098134983  17.507423659
C        2.482100057   4.946365441  17.611270441
C        2.483707451   6.378427644  17.577941745
C        3.710088118   4.224682572  17.590800933
C        3.713338542   7.094681945  17.533523887
C        4.940787685   4.937875979  17.599464996
C        4.941476252   6.365434758  17.561511258
C        6.174539180   4.226063298  17.622761499
C        6.177559872   7.057069453  17.503901238
C        0.009489133   9.193622890  17.268067596
C        1.251700530   8.541174631  17.375224718
C_h        2.493336359   9.274306670  17.423755430
C        3.723018911   8.531814362  17.453123039
C        4.959079493   9.167457822  17.234343405
C        6.178765758   8.471849683  17.327003278
H        1.250177000  -1.138449988  17.345543690
H        3.714059411  -1.132408518  17.254018478
H        6.173220570  -1.137023731  17.339681811
H       -0.040190318  10.281491765  17.268694290
H        5.012652520  10.246948718  17.149594703
C        2.481379460  10.728877517  17.440203525
O        1.601894209  11.492749198  16.907149962
O        3.493321602  11.352475940  18.118613073
H        3.397394607  12.313399958  17.911326353
K_POINTS automatic
4 2 1  0 0 0
CELL_PARAMETERS angstrom
7.378073983 0.000000000 0.0000000000
0.000000000 17.038932 0.0000000000
0.000000000 0.000000000 25.00
