&control
    calculation = 'scf'
    prefix = 'gc'
    pseudo_dir = '/home/549/hxw549/Short/pseudopotentials/'
    outdir = './'
    restart_mode = 'from_scratch'
    etot_conv_thr = 1.d-6
    forc_conv_thr = 1.d-5
/
&system
    ibrav = 0
    nat = 149
    ntyp = 3
    ecutwfc = 80
    occupations = 'smearing'
    smearing = 'gaussian'
    degauss = 0.1
    vdw_corr='grimme-d2'
    tot_charge=1
/
&electrons
    diagonalization = 'david'
    diago_thr_init = 1.d-4
    mixing_mode = 'local-TF'
    mixing_beta = 0.7
    conv_thr =  1.d-8
/	
&ions
/
ATOMIC_SPECIES
Cu 63.546 Cu.pbe-n-van_ak.UPF
C_h 12.0107 C.star1s-pbe-mt_gipaw.UPF
C   12.0107 C.pbe-mt_gipaw.UPF
ATOMIC_POSITIONS angstrom
Cu       0.081482137  -0.084415630   7.346132898
Cu       1.928813315   1.623262570   7.344819353
Cu       3.774173188  -0.083570345   7.347246148
Cu       5.617585352   1.628830394   7.351613274
Cu       0.084067745   3.338142529   7.348161498
Cu       1.930295125   5.053684305   7.346070418
Cu       3.774794424   3.336854804   7.348613249
Cu       5.618748458   5.055757454   7.343052975
Cu       0.086992601   6.771757860   7.339857605
Cu       1.929212578   8.479478163   7.344020063
Cu       3.771042081   6.771526175   7.340534785
Cu       5.616754190   8.482285592   7.341332783
Cu       0.084297774  10.177713254   7.350560769
Cu       1.927040041  11.871893757   7.348552799
Cu       3.771015986  10.179390471   7.350221067
Cu       5.617518136  11.864479596   7.359863270
Cu       0.081545877  13.556101887   7.352639064
Cu       1.926431663  15.249111291   7.346422258
Cu       3.774145384  13.556625372   7.355271110
Cu       5.616649660  15.252820461   7.352423614
Cu       0.085486065   1.625338785   9.173158779
Cu       1.929415600  -0.083865011   9.175970597
Cu       3.778424560   1.623562785   9.173157425
Cu       5.618950111  -0.083139240   9.181465609
Cu       0.089185606   5.059993381   9.164019066
Cu       1.934556550   3.335737688   9.159751285
Cu       3.782163019   5.062261697   9.166280070
Cu       5.624392230   3.343306146   9.170412937
Cu       0.089238318   8.473853025   9.179298381
Cu       1.936694101   6.769666607   9.172388307
Cu       3.781644695   8.473218160   9.179722302
Cu       5.624527732   6.771466661   9.167978972
Cu       0.085584873  11.864281274   9.202169125
Cu       1.934050154  10.177552335   9.182691919
Cu       3.778399802  11.865119854   9.201321195
Cu       5.624923097  10.168507576   9.198831689
Cu       0.086180193  15.251563705   9.186099654
Cu       1.928870640  13.555365886   9.200356875
Cu       3.771613773  15.253349847   9.186268512
Cu       5.618243574  13.556657079   9.197942327
Cu       0.094665814  -0.083698374  11.013944002
Cu       1.938598021   1.630679368  11.000135135
Cu       3.779756111  -0.081584777  11.016625552
Cu       5.630789918   1.628807891  11.008474727
Cu       0.091996359   3.346207942  10.996013137
Cu       1.944721816   5.036958692  10.979950695
Cu       3.792488762   3.339998664  10.990014654
Cu       5.637080769   5.057925935  11.005168109
Cu       0.093052488   6.764727560  11.008109183
Cu       1.946499899   8.486353682  11.009265336
Cu       3.805053505   6.766631034  11.010557169
Cu       5.639960647   8.460322040  11.036970175
Cu       0.096553520  10.157871935  11.048509312
Cu       1.938968230  11.850857695  11.054838006
Cu       3.794193740  10.163773937  11.042590556
Cu       5.632226878  11.861914257  11.057958127
Cu       0.095483330  13.560188064  11.047543143
Cu       1.936722657  15.258904996  11.037850039
Cu       3.777210203  13.558879208  11.047602872
Cu       5.625195867  15.255267379  11.033450713
Cu       0.099198431   1.630076600  12.822869070
Cu       1.948241873  -0.061610860  12.858257440
Cu       3.794304640   1.635963050  12.828565941
Cu       5.633541298  -0.077116845  12.853895578
Cu       0.117898479   5.056860959  12.845285867
Cu       1.949790671   3.345973326  12.824107483
Cu       3.801769266   5.043816930  12.818018179
Cu       5.641897376   3.346352444  12.837942463
Cu       0.123396099   8.437739508  12.898469975
Cu       1.955950476   6.755054268  12.746156644
Cu       3.806588805   8.451864232  12.868660303
Cu       5.668973653   6.749555083  12.901083061
Cu       0.105240152  11.855654399  12.894066867
Cu       1.954145214  10.135869926  12.907819915
Cu       3.796144855  11.851358640  12.890599632
Cu       5.649476155  10.146075682  12.901358193
Cu       0.105814964  15.267660387  12.883518638
Cu       1.946892385  13.553758931  12.893355262
Cu       3.786740900  15.266986186  12.882913952
Cu       5.635829607  13.567842417  12.896296803
Cu       0.124658270  -0.039169003  14.667531064
Cu       1.960610272   1.670360583  14.652271705
Cu       3.776416453  -0.047275161  14.675863767
Cu       5.633651929   1.623001967  14.650355900
Cu       0.096633895   3.313573938  14.638467100
Cu       1.975396308   4.975046966  14.655394836
Cu       3.826738523   3.332354970  14.643098308
Cu       5.676151516   5.040405580  14.679568989
Cu       0.202329788   6.725744227  14.788165098
Cu       1.995210160   8.476396581  14.761987718
Cu       3.823780196   6.722120447  14.672906639
Cu       5.674260963   8.422814226  14.723608336
Cu       0.103688947  10.150711106  14.723978549
Cu       1.953007108  11.839032515  14.713119335
Cu       3.834380906  10.158099978  14.716366976
Cu       5.652286654  11.865002052  14.718483342
Cu       0.109932727  13.566544614  14.710703896
Cu       1.951725860  15.272896428  14.691817257
Cu       3.796664893  13.557342347  14.701742187
Cu       5.642706910  15.291069977  14.700572153
C       -0.185833231   0.849217930  17.594835049
C       -0.187207191   2.269949197  17.595630174
C        1.044116015   0.137997053  17.586610724
C        1.042403520   2.978308235  17.585650197
C        2.272756786   0.846577719  17.556908581
C        2.271590132   2.268063286  17.550605609
C        3.504602496   0.138395763  17.549138224
C        3.501151347   2.979163861  17.549491673
C        4.735598949   0.849634966  17.571077627
C        4.733579976   2.270444953  17.571902978
C        5.963917149   0.139505662  17.594319768
C        5.961990179   2.979734483  17.585349444
C       -0.190972710   5.111477965  17.617000263
C       -0.195734574   6.535612091  17.708809053
C        1.044148700   4.400629334  17.588790378
C        1.014278993   7.253370775  17.692748527
C        2.265979753   5.095665557  17.513705607
C        2.243610951   6.558671298  17.239013632
C        3.492086768   4.402893438  17.541195354
C_h        3.510694338   7.254835304  17.588523760
C        2.087104030   6.694776665  15.631522276
C        4.728031064   5.113190979  17.558514956
C        4.720145649   6.539281505  17.632046455
C        5.958775208   4.405035971  17.581284924
C        5.950823663   7.242689618  17.738667948
C       -0.191372811   9.371872368  17.771242514
C       -0.187201404  10.790575526  17.730184465
C        1.032767513   8.657570510  17.761152319
C        1.043899491  11.499194913  17.698275043
C        2.268700034   9.368731204  17.713889099
C        2.272109537  10.784338774  17.708572398
C        3.501889057   8.656106745  17.698267183
C        3.501827862  11.497856716  17.696956134
C        4.728484031   9.370197659  17.742217371
C        4.729860638  10.789392209  17.727997885
C        5.956408284   8.660817131  17.755953798
C        5.960454881  11.499085595  17.702787893
C       -0.184981171  13.627776052  17.627943510
C       -0.184818208  15.047683694  17.620678644
C        1.046215510  12.917670724  17.649326806
C        1.043667617  15.756665925  17.599524993
C        2.274684151  13.627836310  17.627655919
C        2.275025122  15.047086492  17.584082899
C        3.503019848  12.916728249  17.652434999
C        3.504840283  15.756997082  17.570267579
C        4.733108259  13.627674158  17.632340892
C        4.733701936  15.047693545  17.595303655
C        5.961625059  12.918183909  17.649739290
C        5.964263988  15.758259958  17.601147776
K_POINTS automatic
4 2 1  0 0 0
CELL_PARAMETERS angstrom
7.378073983 0.000000000 0.0000000000
0.000000000 17.038932 0.0000000000
0.000000000 0.000000000 25.00
