&control
    calculation = 'scf'
    prefix = 'gc'
    pseudo_dir = '/home/549/hxw549/Short/pseudopotentials/'
    outdir = './'
    restart_mode = 'from_scratch'
    etot_conv_thr = 1.d-6
    forc_conv_thr = 1.d-5
    
/

&system
    ibrav = 0
    nat = 156
    ntyp = 3
    ecutwfc = 80
    occupations = 'smearing'
    smearing = 'gaussian'
    degauss = 0.1
    vdw_corr='grimme-d2'
    tot_charge=1
/

&electrons
    diagonalization = 'david'
    diago_thr_init = 1.d-4
    mixing_mode = 'local-TF'
    mixing_beta = 0.7
    conv_thr =  1.d-8
    	

/	

&ions
    
/


ATOMIC_SPECIES
Cu 63.546 Cu.pbe-n-van_ak.UPF
C_h 12.0107 C.star1s-pbe-mt_gipaw.UPF
C   12.0107 C.pbe-mt_gipaw.UPF



ATOMIC_POSITIONS angstrom
Cu      -0.000405172   0.028733307   6.562825271
Cu       1.843456831   1.744227505   6.589759843
Cu       3.688914350   0.029712625   6.559901851
Cu       5.534038763   1.745485777   6.589017050
Cu      -0.000414651   3.453296477   6.630569259
Cu       1.843931112   5.149601313   6.657971692
Cu       3.688867198   3.453380971   6.630260399
Cu       5.533495603   5.149282993   6.658112472
Cu      -0.000075826   6.841099893   6.666500420
Cu       1.844215591   8.532542788   6.667614018
Cu       3.688406035   6.840676375   6.665643315
Cu       5.533159060   8.532184153   6.666966177
Cu      -0.000840457  10.226191938   6.660322557
Cu       1.843633646  11.925489253   6.630487947
Cu       3.689243343  10.225865021   6.658589549
Cu       5.533785632  11.923407768   6.629552535
Cu       0.000311949  13.633790459   6.587024753
Cu       1.844721645  15.348210755   6.560433682
Cu       3.688169370  13.632067197   6.588915234
Cu       5.532834811  15.348213087   6.560600721
Cu      -0.000004152   1.707586773   8.424806783
Cu       1.843700813   0.012484278   8.398489980
Cu       3.688524503   1.706735918   8.423800683
Cu       5.533787420   0.012714713   8.399442440
Cu      -0.000522916   5.133476889   8.497513452
Cu       1.844698333   3.418158468   8.465661913
Cu       3.688945679   5.133542893   8.497094568
Cu       5.532805607   3.417842299   8.464950323
Cu      -0.000464849   8.535456895   8.516519764
Cu       1.843985341   6.838329855   8.516981583
Cu       3.688833202   8.535467452   8.515674622
Cu       5.533575464   6.839315095   8.516675076
Cu      -0.000060192  11.960300072   8.462695489
Cu       1.843482628  10.241835088   8.495288380
Cu       3.688427361  11.959534162   8.465117923
Cu       5.533917180  10.242921393   8.495182896
Cu      -0.001009379  15.362581363   8.399481693
Cu       1.845195016  13.670123893   8.423729420
Cu       3.689360559  15.364202857   8.397855975
Cu       5.532271196  13.670791740   8.424008931
Cu      -0.001016810   0.005078112  10.270177168
Cu       1.844404108   1.687505804  10.276927001
Cu       3.689393437   0.007888618  10.270910159
Cu       5.533096958   1.687239659  10.276197845
Cu       0.000045571   3.382574119  10.296353255
Cu       1.844490868   5.101688185  10.329060641
Cu       3.688435560   3.379783683  10.293404733
Cu       5.533211021   5.099814259  10.329816499
Cu      -0.000265591   6.826285727  10.361072730
Cu       1.843988735   8.551474866  10.357311672
Cu       3.688645354   6.826011787  10.362068949
Cu       5.533741922   8.551525324  10.360751541
Cu      -0.000545488  10.276536126  10.324441028
Cu       1.845028081  11.994996106  10.290145424
Cu       3.688951633  10.274959814  10.325574283
Cu       5.532311837  11.996169384  10.290434698
Cu      -0.000360483  13.689320213  10.276520728
Cu       1.843953968  15.370505816  10.269987523
Cu       3.688586614  13.691134995  10.272448725
Cu       5.533391840  15.368413834  10.271016405
Cu      -0.000438430   1.679201491  12.153030272
Cu       1.845257200   0.001135977  12.150360431
Cu       3.688614125   1.678678445  12.155911007
Cu       5.532138204   0.001512905  12.151637732
Cu       0.000263240   5.053317109  12.165148617
Cu       1.845276055   3.357173606  12.152827828
Cu       3.688424602   5.048361313  12.159373432
Cu       5.532160295   3.355986037  12.152624865
Cu      -0.000388640   8.586088477  12.178873922
Cu       1.845631918   6.799740560  12.180806173
Cu       3.689418732   8.580078250  12.185450541
Cu       5.531849386   6.797826457  12.184657499
Cu      -0.000841352  12.015531712  12.152815149
Cu       1.845217571  10.326503212  12.157844654
Cu       3.689102774  12.020971731  12.146205642
Cu       5.532557815  10.330773473  12.159628357
Cu      -0.001252869  15.375409876  12.152735569
Cu       1.842610625  13.698855809  12.149974084
Cu       3.689805219  15.373099224  12.148047139
Cu       5.534601801  13.698933271  12.154413303
Cu       0.000446814   0.004106345  14.037894198
Cu       1.847271720   1.658769726  14.029478667
Cu       3.687710057  -0.003795621  14.036573747
Cu       5.530392676   1.657845538  14.029247298
Cu       0.000249163   3.296346107  14.050255517
Cu       1.839732936   4.964492286  14.040112781
Cu       3.688152990   3.287539856  14.034328579
Cu       5.537730131   4.959302791  14.039445362
Cu       0.004620757   6.776125262  13.920244979
Cu       1.842879720   8.611441755  13.923523532
Cu       3.682887529   6.763551267  13.922729235
Cu       5.534535107   8.615098499  13.917889044
Cu       0.000022594  10.425199108  14.049297247
Cu       1.845635753  12.086199756  14.037952156
Cu       3.688270946  10.419731329  14.023073841
Cu       5.531967377  12.088716475  14.041558504
Cu      -0.000241546  13.715997407  14.030828959
Cu       1.839787506  15.373509077  14.035165515
Cu       3.688432514  13.722562313  14.025129296
Cu       5.537116746  15.376287196  14.037817658
Cu       1.871577404  10.288603554  15.757811051
Cu       5.507021577  10.286745584  15.762055739
Cu      -0.003415201   8.546313724  15.648195256
Cu       1.848269864   6.853070946  15.646080106
Cu       3.691081120   8.530564618  15.636512348
Cu       5.530063194   6.847257756  15.641061091
Cu      -0.000142604   5.126594064  15.755514975
Cu       3.688158822   5.077754607  15.756488899
C        0.000731282   0.665080330  17.730619913
C        0.000686210   2.083442417  17.840266643
C        1.229757630  -0.047596124  17.704852919
C        1.231243313   2.790688380  17.912245092
C        2.459178024   0.664182346  17.726728331
C        2.459870748   2.082325306  17.826430569
C        3.689649601  -0.046691027  17.694733782
C        3.689602968   2.789589955  17.875446171
C        4.920468014   0.664282164  17.725867493
C        4.919664250   2.082413488  17.826074209
C        6.149525269  -0.047566992  17.704222648
C        6.147954427   2.790784918  17.911752562
C        0.000542565   4.921307373  18.153084838
C        0.000774607   6.336756805  18.376652675
C        1.234035139   4.204398262  18.075121784
C        1.229165519   7.047903025  18.418531540
C        2.457182690   4.917597807  18.177853803
C        2.460840818   6.334471669  18.367053538
C_h        3.689893007   4.211381941  18.036786226
C        3.689677640   7.044594021  18.431217909
C        4.921995368   4.917416301  18.179655283
C        4.918816064   6.334349403  18.367845919
C        6.145659359   4.204486859  18.075089770
C        6.149967052   7.047917587  18.417779927
C        0.000672267   9.187048415  18.353853908
C        0.000834766  10.603554322  18.163317432
C        1.232636301   8.476056004  18.423246557
C        1.226782940  11.311142860  18.030158900
C        2.458856403   9.185108680  18.356638967
C        2.462628936  10.601117267  18.132358509
C        3.689944375   8.472140226  18.401510079
C        3.689633999  11.320107435  18.049984943
C        4.920524918   9.185075842  18.357913331
C        4.917050023  10.601019923  18.132251155
C        6.147190452   8.476013082  18.424288955
C        6.152629761  11.311026747  18.029580268
C        0.000740138  13.436706878  17.800705895
C        0.000562301  14.856145555  17.715090571
C        1.229841114  12.729964726  17.867374140
C        1.229551729  15.570003555  17.695540041
C        2.459196244  13.439988853  17.814244872
C        2.459577650  14.859459823  17.720472803
C        3.689634103  12.732052434  17.891277136
C        3.689943708  15.571231184  17.701758678
C        4.920327860  13.439946136  17.813930806
C        4.919612730  14.859360007  17.719405083
C        6.149368620  12.729884523  17.867120085
C        6.150242325  15.570014935  17.694755876

K_POINTS automatic
4 2 1  0 0 0

CELL_PARAMETERS angstrom
7.378073983 0.000000000 0.0000000000
0.000000000 17.038932 0.0000000000
0.000000000 0.000000000 25.00
