&control
    calculation = 'scf'
    prefix = 'gc'
    pseudo_dir = '/home/549/hxw549/Short/pseudopotentials/'
    outdir = './'
    restart_mode = 'from_scratch'
    etot_conv_thr = 1.d-6
    forc_conv_thr = 1.d-5
/
&system
    ibrav = 0
    nat = 2
    ntyp = 5
    ecutwfc = 80
    occupations = 'smearing'
    smearing = 'gaussian'
    degauss = 0.1
    vdw_corr='grimme-d2'
    tot_charge=1
/
&electrons
    diagonalization = 'david'
    diago_thr_init = 1.d-4
    mixing_mode = 'local-TF'
    mixing_beta = 0.7
    conv_thr =  1.d-8
/	
&ions
/
ATOMIC_SPECIES
Cu 63.546 Cu.pbe-n-van_ak.UPF
C_h 12.0107 C.star1s-pbe-mt_gipaw.UPF
C   12.0107 C.pbe-mt_gipaw.UPF
O   15.9994 O.pbe-van_gipaw.UPF
H  1.007825032 H.pbe-van_ak.UPF
ATOMIC_POSITIONS angstrom
C_h        3.554406602   7.045132642  25
O        2.806664418   7.925669507  25
K_POINTS automatic
1 1 1  0 0 0
CELL_PARAMETERS angstrom
7.378073983 0.000000000 0.0000000000
0.000000000 17.038932 0.0000000000
0.000000000 0.000000000 25.00
