 &control
    calculation='bands'
    pseudo_dir = '/short/y35/tjf502/QE-5.4.0-bw/pseudo/',
    outdir='/short/y35/tjf502/QE-5.4.0-bw/tempdir/',
    prefix='si'
 /
 &system
    ibrav=  2, celldm(1) =10.20, nat=  2, ntyp= 1,
    ecutwfc =18.0, nbnd = 8,
 /
 &electrons
 /
ATOMIC_SPECIES
 Si  28.086  Si.pz-vbc.UPF
ATOMIC_POSITIONS
 Si 0.00 0.00 0.00
 Si 0.25 0.25 0.25
K_POINTS tpiba_b
  5
   L 20
   gG 20
X 0
   1.0 1.0 0.0 30
   gG  1
