 &bands
    prefix  = 'si'
    outdir = '/short/y35/tjf502/QE-5.4.0-bw/tempdir/'
    filband = 'sibands.dat'
    lsym=.true.,
 /
