 &inputpp
    prefix  = 'si'
    outdir = '/short/y35/tjf502/QE-5.4.0-bw/tempdir/'
    filplot = 'sicharge'
    plot_num= 0
 /
 &plot
    nfile = 1
    filepp(1) = 'sicharge'
    weight(1) = 1.0
    iflag = 2
    output_format = 7
    fileout = 'si.rho_new.dat'
    e1(1) =1.0, e1(2)=1.0, e1(3) = 0.0,
    e2(1) =0.0, e2(2)=0.0, e2(3) = 1.0,
    nx=141, ny=100
 /
