&control
    calculation = 'relax'
    prefix = 'gc'
    pseudo_dir = '/home/549/hxw549/Short/pseudopotentials/'
    outdir = './'
    restart_mode = 'from_scratch'
    etot_conv_thr = 1.d-6
    forc_conv_thr = 1.d-5
    
/

&system
    ibrav = 0
    nat = 150
    ntyp = 4
    ecutwfc = 80
    occupations = 'smearing'
    smearing = 'gaussian'
    degauss = 0.1
    vdw_corr='grimme-d2'
/

&electrons
    diagonalization = 'david'
    diago_thr_init = 1.d-4
    mixing_mode = 'local-TF'
    mixing_beta = 0.7
    conv_thr =  1.d-8
/	

&ions
    
/


ATOMIC_SPECIES
Cu 63.546 Cu.pbe-n-van_ak.UPF
C   12.0107 C.pbe-mt_gipaw.UPF
O   15.9994 O.pbe-van_gipaw.UPF
H  1.007825032 H.pbe-van_ak.UPF


ATOMIC_POSITIONS angstrom
Cu      -0.000086051   0.001519893   7.365092009
Cu       1.844571851   1.706208991   7.365549920
Cu       3.689052323   0.001772075   7.365316222
Cu       5.533586288   1.706233522   7.365392612
Cu       0.000158477   3.409038084   7.364698174
Cu       1.844547001   5.111538644   7.362054268
Cu       3.689131791   3.409025238   7.363865976
Cu       5.533903380   5.111544179   7.361896582
Cu       0.000257384   6.814821859   7.360855453
Cu       1.844765864   8.518175773   7.361993249
Cu       3.689196602   6.814647647   7.360515604
Cu       5.533669548   8.518097801   7.361848901
Cu       0.000043892  10.220830381   7.364427292
Cu       1.844637923  11.923440629   7.366369326
Cu       3.689218529  10.220943491   7.364742207
Cu       5.533485141  11.923646623   7.366221649
Cu       0.000094896  13.627920490   7.365889643
Cu       1.844428084  15.334226061   7.365075868
Cu       3.688848402  13.627694748   7.366019691
Cu       5.533503222  15.334053668   7.365049946
Cu       0.000309019   1.706769362   9.198308622
Cu       1.844848168   0.001327458   9.196112674
Cu       3.689409863   1.707813690   9.198646266
Cu       5.533681117   0.001426636   9.196145090
Cu       0.000555800   5.114626938   9.197384500
Cu       1.845115261   3.411918332   9.198972109
Cu       3.689602175   5.114152884   9.196698152
Cu       5.533895450   3.411978805   9.198838305
Cu       0.000526900   8.515699328   9.196481583
Cu       1.845313057   6.815015111   9.195531245
Cu       3.689649456   8.515156392   9.196792002
Cu       5.533968245   6.814969720   9.195393001
Cu       0.000331903  11.921718482   9.199017547
Cu       1.845255468  10.217395263   9.199292148
Cu       3.689398210  11.921683635   9.200273964
Cu       5.533780033  10.217353496   9.199250415
Cu       0.000146213  15.334148795   9.195209121
Cu       1.844815301  13.627852423   9.197102042
Cu       3.689251018  15.334124065   9.194917143
Cu       5.533710697  13.627775536   9.197044310
Cu       0.000634826  -0.000943717  11.035619525
Cu       1.846083309   1.706373234  11.037342602
Cu       3.689783132  -0.000627181  11.035054712
Cu       5.533644173   1.706661790  11.037489993
Cu       0.000960345   3.413772171  11.039057213
Cu       1.846309147   5.118459467  11.043048687
Cu       3.690090067   3.415854502  11.042420261
Cu       5.534042643   5.118527038  11.043190657
Cu       0.001163311   6.816951442  11.043483500
Cu       1.846006797   8.511771189  11.043932646
Cu       3.690334200   6.814817862  11.045068949
Cu       5.534487361   8.511513849  11.044195689
Cu       0.001091700  10.213930852  11.041711787
Cu       1.845571248  11.920991432  11.038864021
Cu       3.690190711  10.211942828  11.043569152
Cu       5.534375013  11.920943437  11.038852015
Cu       0.000725360  13.628634758  11.035607239
Cu       1.845004481  15.334253101  11.035119777
Cu       3.689799705  13.630362594  11.036283934
Cu       5.534358648  15.334192341  11.035037557
Cu       0.001195243   1.703470094  12.868325085
Cu       1.846530045  -0.002586104  12.874439826
Cu       3.690354052   1.701489443  12.873900122
Cu       5.533872943  -0.002542283  12.874269403
Cu       0.001582933   5.117605073  12.882033402
Cu       1.850270780   3.412404000  12.875333839
Cu       3.690633088   5.123630027  12.897603210
Cu       5.530647707   3.412775026  12.875841442
Cu       0.001850771   8.511942493  12.895468877
Cu       1.848243545   6.816549124  12.899205642
Cu       3.690802876   8.505088702  12.898694577
Cu       5.533249626   6.816140077  12.900093044
Cu       0.001579883  11.923869630  12.874157968
Cu       1.845223476  10.212718856  12.880994949
Cu       3.690648784  11.924003331  12.869692054
Cu       5.536376786  10.212651458  12.880836041
Cu       0.001247057  15.332703342  12.876669627
Cu       1.844573073  13.631289194  12.873352426
Cu       3.690196580  15.335791400  12.877364290
Cu       5.536229607  13.631270692  12.873344481
Cu       0.001581965   0.001671337  14.686747282
Cu       1.845198070   1.701581539  14.683494260
Cu       3.690256091  -0.000484712  14.700411731
Cu       5.535711624   1.701862692  14.683091854
Cu       0.002108784   3.405902199  14.671094256
Cu       1.861330116   5.104549127  14.702486692
Cu       3.689998509   3.393123466  14.699510303
Cu       5.520069783   5.103886458  14.703461506
Cu       0.001636612   6.800507360  14.715687800
Cu       1.846114951   8.520479602  14.721706005
Cu       3.690855110   6.822342266  14.771091956
Cu       5.536043053   8.520963059  14.720617656
Cu       0.002532086  10.227825847  14.700580881
Cu       1.843534345  11.927433659  14.682089626
Cu       3.690620812  10.228045625  14.686866471
Cu       5.538520890  11.926481914  14.681862577
Cu       0.001390685  13.629977456  14.697633509
Cu       1.846107163  15.333249841  14.693766900
Cu       3.691164220  13.625750340  14.684302851
Cu       5.535056728  15.333869548  14.693341830
C       -0.001145629   0.716138617  17.619546047
C       -0.000086257   2.136355611  17.590898060
C        1.227947506   0.006453073  17.623563820
C        1.228778301   2.847191365  17.566130306
C        2.456645470   0.715773112  17.602954609
C        2.456904236   2.135636277  17.574223156
C        3.687499297   0.004605263  17.601518472
C        3.688584118   2.850974820  17.560120084
C        4.918589670   0.715504468  17.601455649
C        4.919923573   2.135333010  17.572362663
C        6.147476468   0.006570288  17.621657467
C        6.149299271   2.845876244  17.563494569
C        0.002935412   4.975296709  17.516993999
C        0.005917858   6.392876818  17.495610518
C        1.230094708   4.264460788  17.538621095
C        1.240620160   7.098597154  17.586027701
C        2.459129476   4.980814420  17.605136568
C        2.446941859   6.384774148  17.684594028
C        3.690798158   4.264959106  17.599918569
C        3.688249182   7.097121039  18.089340786
O        3.545612857   7.041897106  19.627363462
H        4.449529733   7.105176279  20.006236313
C        4.923882169   4.978801491  17.604409618
C        4.938227258   6.385882328  17.699726736
C        6.152314716   4.263268626  17.535288741
C        6.149228458   7.098943999  17.585685694
C        0.004512552   9.226803513  17.544796706
C        0.000437527  10.651709081  17.534889317
C        1.234991004   8.523367692  17.588194778
C        1.232029016  11.360355363  17.552565738
C        2.469233826   9.232063696  17.634645414
C        2.462388480  10.653598249  17.577044647
C        3.694128278   8.541952826  17.733868889
C        3.688104130  11.362906055  17.591158526
C        4.914795955   9.232582169  17.631138726
C        4.917814117  10.655232138  17.574579611
C        6.151171717   8.524023294  17.584815718
C        6.146765609  11.361483902  17.551201135
C       -0.000922480  13.493006566  17.586085732
C       -0.001432813  14.912472366  17.617898097
C        1.230301961  12.781125526  17.582669220
C        1.227214921  15.623727368  17.621245413
C        2.458168996  13.492329586  17.614865041
C        2.458274377  14.912328334  17.621351069
C        3.688077390  12.783504280  17.609730502
C        3.687269151  15.622547073  17.623354950
C        4.916685126  13.492702959  17.613023985
C        4.916538569  14.912307922  17.619138459
C        6.145924612  12.781514871  17.581370261
C        6.147577025  15.623785432  17.618829188

K_POINTS automatic
4 2 1  0 0 0

CELL_PARAMETERS angstrom
7.378073983 0.000000000 0.0000000000
0.000000000 17.038932 0.0000000000
0.000000000 0.000000000 25.00
