&control
    calculation = 'relax'
    prefix = 'gc'
    pseudo_dir = '/home/549/hxw549/Short/pseudopotentials/'
    outdir = './'
    restart_mode = 'from_scratch'
    etot_conv_thr = 1.d-6
    forc_conv_thr = 1.d-5
    
/

&system
    ibrav = 0
    nat = 147
    ntyp = 2
    ecutwfc = 80
    occupations = 'smearing'
    smearing = 'gaussian'
    degauss = 0.1
    vdw_corr='grimme-d2'
/

&electrons
    diagonalization = 'david'
    diago_thr_init = 1.d-4
    mixing_mode = 'local-TF'
    mixing_beta = 0.7
    conv_thr =  1.d-8
    	

/	

&ions
    
/


ATOMIC_SPECIES
Cu 63.546 Cu.pbe-n-van_ak.UPF
C   12.0107 C.pbe-mt_gipaw.UPF



ATOMIC_POSITIONS angstrom

Cu       0.000000000  -0.000657302   7.361278461
Cu       1.844736180   1.703430559   7.362043883
Cu       3.689036991   0.001453852   7.360932853
Cu       5.533337803   1.703430559   7.362043883
Cu       0.000000000   3.407039346   7.363089969
Cu       1.844359420   5.110554663   7.359676036
Cu       3.689036991   3.406037289   7.359794089
Cu       5.533714563   5.110554663   7.359676036
Cu       0.000000000   6.816243190   7.358350428
Cu       1.844497071   8.520169755   7.359240524
Cu       3.689036991   6.814162834   7.359098170
Cu       5.533576912   8.520169755   7.359240524
Cu       0.000000000  10.224590840   7.360736337
Cu       1.843998113  11.927893626   7.362408303
Cu       3.689036991  10.224654602   7.361360428
Cu       5.534075870  11.927893626   7.362408303
Cu       0.000000000  13.630411237   7.361116707
Cu       1.844584382  15.335062460   7.360211737
Cu       3.689036991  13.631384840   7.362121632
Cu       5.533489601  15.335062460   7.360211737
Cu       0.000000000   1.704581539   9.195355954
Cu       1.845031263   0.000630326   9.194013946
Cu       3.689036991   1.706976571   9.199393992
Cu       5.533042720   0.000630326   9.194013946
Cu       0.000000000   5.112973951   9.195277326
Cu       1.845491178   3.409102790   9.196862734
Cu       3.689036991   5.110275533   9.190558851
Cu       5.532582805   3.409102790   9.196862734
Cu       0.000000000   8.517988966   9.194244729
Cu       1.843119557   6.815252107   9.190275562
Cu       3.689036991   8.520750851   9.188554773
Cu       5.534954426   6.815252107   9.190275562
Cu       0.000000000  11.926025067   9.197788426
Cu       1.844013232  10.222302434   9.195940657
Cu       3.689036991  11.924201783   9.197768783
Cu       5.534060751  10.222302434   9.195940657
Cu       0.000000000  15.335622201   9.192714948
Cu       1.843970520  13.630408977   9.194537809
Cu       3.689036991  15.334707184   9.192054365
Cu       5.534103463  13.630408977   9.194537809
Cu       0.000000000   0.000730954  11.036087393
Cu       1.846113462   1.710197897  11.041277556
Cu       3.689036991  -0.001374407  11.033555980
Cu       5.531960521   1.710197897  11.041277556
Cu       0.000000000   3.414989768  11.043015830
Cu       1.849506951   5.122991145  11.050505351
Cu       3.689036991   3.433042507  11.062051722
Cu       5.528567032   5.122991145  11.050505351
Cu       0.000000000   6.817072342  11.052316621
Cu       1.848670650   8.509685553  11.047748088
Cu       3.689036991   6.815274648  11.031857348
Cu       5.529403333   8.509685553  11.047748088
Cu       0.000000000  10.214427694  11.044968170
Cu       1.845311985  11.920182046  11.041795424
Cu       3.689036991  10.196963791  11.062064398
Cu       5.532761998  11.920182046  11.041795424
Cu       0.000000000  13.630747396  11.035166847
Cu       1.844193720  15.334772164  11.034588457
Cu       3.689036991  13.632010765  11.035553177
Cu       5.533880263  15.334772164  11.034588457
Cu       0.000000000   1.712999192  12.873095419
Cu       1.844476698  -0.000400308  12.873922396
Cu       3.689036991   1.704921919  12.873107844
Cu       5.533597285  -0.000400308  12.873922396
Cu       0.000000000   5.129124224  12.894150844
Cu       1.859428027   3.437302064  12.895886188
Cu       3.689036991   5.233112106  13.028508789
Cu       5.518645956   3.437302064  12.895886188
Cu       0.000000000   8.507260153  12.905374852
Cu       1.906578573   6.823637716  12.957579524
Cu       3.689036991   8.390829643  13.028148482
Cu       5.471495410   6.823637716  12.957579524
Cu       0.000000000  11.916877007  12.876994665
Cu       1.854961343  10.191100251  12.897169159
Cu       3.689036991  11.924868140  12.870132618
Cu       5.523112640  10.191100251  12.897169159
Cu       0.000000000  15.332472294  12.876814224
Cu       1.843401628  13.630260063  12.875452033
Cu       3.689036991  15.338341423  12.877219855
Cu       5.534672355  13.630260063  12.875452033
Cu       0.000000000   0.004970593  14.685277350
Cu       1.841618659   1.701425493  14.691212802
Cu       3.689036991   0.003187970  14.703024013
Cu       5.536455324   1.701425493  14.691212802
Cu       0.000000000   3.417412529  14.696323047
Cu       1.862045376   5.128462321  14.755396220
Cu       3.689036991   3.382493394  14.713199951
Cu       5.516028607   5.128462321  14.755396220
Cu       0.000000000   6.817028996  14.661188675
Cu       1.854291799   8.522130011  14.784229665
Cu       3.689036991   6.843703281  15.805742511
Cu       5.523782184   8.522130011  14.784229665
Cu       0.000000000  10.218970236  14.720091288
Cu       1.838048110  11.925179591  14.692306216
Cu       3.689036991  10.243337797  14.688035439
Cu       5.540025873  11.925179591  14.692306216
Cu       0.000000000  13.627064133  14.700299254
Cu       1.842803182  15.335854677  14.692002169
Cu       3.689036991  13.627809909  14.684989446
Cu       5.535270801  15.335854677  14.692002169
C        0.000000000   0.749124493  17.615824710
C        0.000000000   2.183033591  17.648830320
C        1.224569135   0.019597199  17.611907837
C        1.232704643   2.891826376  17.660600123
C        2.456479012   0.737714023  17.599605832
C        2.457276601   2.171888954  17.608819505
C        3.689036991   0.014480074  17.588336939
C        3.689036991   2.884369483  17.606173360
C        4.921594970   0.737714023  17.599605832
C        4.920797381   2.171888954  17.608819505
C        6.153504848   0.019597199  17.611907837
C        6.145369340   2.891826376  17.660600123
C        0.000000000   5.002786384  17.674092782
C        0.000000000   6.408926190  17.673192427
C        1.232570891   4.312661451  17.665619696
C        1.217567375   7.114046846  17.441595647
C        2.467225026   5.034511899  17.420308050
C        2.398376696   6.421549904  16.931086316
C        3.689036991   4.313360119  17.511368315
C        4.910848956   5.034511899  17.420308050
C        4.979697286   6.421549904  16.931086316
C        6.145503092   4.312661451  17.665619696
C        6.160506608   7.114046846  17.441595647
C        0.000000000   9.218086618  17.631113561
C        0.000000000  10.621503226  17.613642852
C        1.216442035   8.511472279  17.535124067
C        1.240701232  11.305981543  17.620793197
C        2.480762807   9.144849088  17.488088907
C        2.470993973  10.582789558  17.625510418
C        3.689036991   8.422602385  17.304314407
C        3.689036991  11.301692860  17.641601863
C        4.897311175   9.144849088  17.488088907
C        4.907080009  10.582789558  17.625510418
C        6.161631948   8.511472279  17.535124067
C        6.137372751  11.305981543  17.620793197
C        0.000000000  13.448285641  17.589975155
C        0.000000000  14.883797334  17.604464592
C        1.236456264  12.733111858  17.608076252
C        1.225354513  15.617436304  17.606436248
C        2.462204324  13.454964846  17.616276178
C        2.459635202  14.890768065  17.607627795
C        3.689036991  12.733150327  17.629863706
C        3.689036991  15.617432039  17.607843099
C        4.915869658  13.454964846  17.616276178
C        4.918438780  14.890768065  17.607627795
C        6.141617719  12.733111858  17.608076252
C        6.152719470  15.617436304  17.606436248





K_POINTS automatic
4 2 1  0 0 0

CELL_PARAMETERS angstrom
7.378073983 0.000000000 0.0000000000
0.000000000 17.038932 0.0000000000
0.000000000 0.000000000 25.00
